     Program PWSCF v.6.1 (svn rev. 13369) starts on 17Apr2018 at 23: 0:26

     Reading input from ceo2.scf.david60.in
     Message from routine read_cards :
     DEPRECATED: no units specified in ATOMIC_POSITIONS card
     Message from routine read_cards :
     ATOMIC_POSITIONS: units set to alat

     Current dimensions of program PWSCF are:
     Max number of different atomic species (ntypx) = 10
     Max number of k-points (npk) =  40000
     Max angular momentum in pseudopotentials (lmaxx) =  3

[...]

     Current dimensions of program PWSCF are:
     Max number of different atomic species (ntypx) = 10
     Max number of k-points (npk) =  40000
     Max angular momentum in pseudopotentials (lmaxx) =  3

     Program PWSCF v.6.1 (svn rev. 13369) starts on 17Apr2018 at 23: 0:26

     Reading input from ceo2.scf.david60.in
     Message from routine read_cards :
     DEPRECATED: no units specified in ATOMIC_POSITIONS card
     Message from routine read_cards :
     ATOMIC_POSITIONS: units set to alat

     Current dimensions of program PWSCF are:
     Max number of different atomic species (ntypx) = 10
     Max number of k-points (npk) =  40000
     Max angular momentum in pseudopotentials (lmaxx) =  3
               file O.pbe-nl-rrkjus_psl.1.0.0.UPF: wavefunction(s)  2S renormalized
               file O.pbe-nl-rrkjus_psl.1.0.0.UPF: wavefunction(s)  2S renormalized
               file O.pbe-nl-rrkjus_psl.1.0.0.UPF: wavefunction(s)  2S renormalized
               file O.pbe-nl-rrkjus_psl.1.0.0.UPF: wavefunction(s)  2S renormalized
               file Ce.pbe-spdfn-rrkjus_psl.1.0.0.UPF: wavefunction(s)  4F renormalized
               file Ce.pbe-spdfn-rrkjus_psl.1.0.0.UPF: wavefunction(s)  4F renormalized
               file Ce.pbe-spdfn-rrkjus_psl.1.0.0.UPF: wavefunction(s)  4F renormalized
               file Ce.pbe-spdfn-rrkjus_psl.1.0.0.UPF: wavefunction(s)  4F renormalized

     bravais-lattice index     =            2
     lattice parameter (alat)  =      10.2253  a.u.
     unit-cell volume          =     267.2811 (a.u.)^3
     number of atoms/cell      =            3
     number of atomic types    =            2
     number of electrons       =        34.00
     number of Kohn-Sham states=           17
     kinetic-energy cutoff     =      60.0000  Ry
     charge density cutoff     =     240.0000  Ry
     convergence threshold     =      1.0E-08
     mixing beta               =       0.7000
     number of iterations used =            8  plain     mixing
     Exchange-correlation      = PBE ( 1  4  3  4 0 0)

     celldm(1)=  10.225300  celldm(2)=   0.000000  celldm(3)=   0.000000
     celldm(4)=   0.000000  celldm(5)=   0.000000  celldm(6)=   0.000000

     crystal axes: (cart. coord. in units of alat)
               a(1) = (  -0.500000   0.000000   0.500000 )
               a(2) = (   0.000000   0.500000   0.500000 )
               a(3) = (  -0.500000   0.500000   0.000000 )

     reciprocal axes: (cart. coord. in units 2 pi/alat)
               b(1) = ( -1.000000 -1.000000  1.000000 )
               b(2) = (  1.000000  1.000000  1.000000 )
               b(3) = ( -1.000000  1.000000 -1.000000 )

     PseudoPot. # 1 for  O read from file:
     /home/dmitry/qe/qe-6.1/pseudo/O.pbe-nl-rrkjus_psl.1.0.0.UPF
     MD5 check sum: 41aa6daaf7b486e514118ed2fcffca44
     Pseudo is Ultrasoft + core correction, Zval =  6.0
     Generated using "atomic" code by A. Dal Corso  v.6.1 svn rev. 13369
     Using radial grid of 1095 points,  4 beta functions with:
                l(1) =   0
                l(2) =   0
                l(3) =   1
                l(4) =   1
     Q(r) pseudized with 0 coefficients

     PseudoPot. # 2 for Ce read from file:
     /home/dmitry/qe/qe-6.1/pseudo/Ce.pbe-spdfn-rrkjus_psl.1.0.0.UPF
     MD5 check sum: 584ada09c8d63c147a4eb0bd2f8e9a4c
     Pseudo is Ultrasoft + core correction, Zval = 22.0
     Generated using "atomic" code by A. Dal Corso  v.6.1 svn rev. 13369
     Using radial grid of 1255 points,  8 beta functions with:
                l(1) =   0
                l(2) =   0
                l(3) =   1
                l(4) =   1
                l(5) =   2
                l(6) =   2
                l(7) =   3
                l(8) =   3
     Q(r) pseudized with 0 coefficients

     atomic species   valence    mass     pseudopotential
        O              6.00    15.99900      O( 1.00)
        Ce            22.00   140.12000     Ce( 1.00)

     Simplified LDA+U calculation (l_max = 1) with parameters (eV):
     atomic species    L          U    alpha       J0     beta
        O              1     4.0000   0.0000   0.0000   0.0000

     48 Sym. Ops., with inversion, found

   Cartesian axes

     site n.     atom                  positions (alat units)
         1           Ce  tau(   1) = (   0.0000000   0.0000000   0.0000000  )
         2           O   tau(   2) = (   0.2500000   0.2500000   0.2500000  )
         3           O   tau(   3) = (   0.7500000   0.7500000   0.7500000  )

     number of k points=     6
                       cart. coord. in units 2pi/alat
        k(    1) = (  -0.1666667   0.1666667   0.1666667), wk =   0.1481481
        k(    2) = (   0.5000000  -0.5000000   0.8333333), wk =   0.4444444
        k(    3) = (   0.1666667  -0.1666667   0.5000000), wk =   0.4444444
        k(    4) = (  -0.1666667  -1.1666667   0.1666667), wk =   0.4444444
        k(    5) = (  -0.5000000  -0.8333333  -0.1666667), wk =   0.4444444
        k(    6) = (   0.5000000  -0.5000000  -0.5000000), wk =   0.0740741

[...]

     bravais-lattice index     =            2
     lattice parameter (alat)  =      10.2253  a.u.
     unit-cell volume          =     267.2811 (a.u.)^3
     number of atoms/cell      =            3
     number of atomic types    =            2
     number of electrons       =        34.00
     number of Kohn-Sham states=           17
     kinetic-energy cutoff     =      60.0000  Ry
     charge density cutoff     =     240.0000  Ry
     convergence threshold     =      1.0E-08
     mixing beta               =       0.7000
     number of iterations used =            8  plain     mixing
     Exchange-correlation      = PBE ( 1  4  3  4 0 0)

     celldm(1)=  10.225300  celldm(2)=   0.000000  celldm(3)=   0.000000
     celldm(4)=   0.000000  celldm(5)=   0.000000  celldm(6)=   0.000000

     crystal axes: (cart. coord. in units of alat)
               a(1) = (  -0.500000   0.000000   0.500000 )
               a(2) = (   0.000000   0.500000   0.500000 )
               a(3) = (  -0.500000   0.500000   0.000000 )

     reciprocal axes: (cart. coord. in units 2 pi/alat)
               b(1) = ( -1.000000 -1.000000  1.000000 )
               b(2) = (  1.000000  1.000000  1.000000 )
               b(3) = ( -1.000000  1.000000 -1.000000 )

     PseudoPot. # 1 for  O read from file:
     /home/dmitry/qe/qe-6.1/pseudo/O.pbe-nl-rrkjus_psl.1.0.0.UPF
     MD5 check sum: 41aa6daaf7b486e514118ed2fcffca44
     Pseudo is Ultrasoft + core correction, Zval =  6.0
     Generated using "atomic" code by A. Dal Corso  v.6.1 svn rev. 13369
     Using radial grid of 1095 points,  4 beta functions with:
                l(1) =   0
                l(2) =   0
                l(3) =   1
                l(4) =   1
     Q(r) pseudized with 0 coefficients

     PseudoPot. # 2 for Ce read from file:
     /home/dmitry/qe/qe-6.1/pseudo/Ce.pbe-spdfn-rrkjus_psl.1.0.0.UPF
     MD5 check sum: 584ada09c8d63c147a4eb0bd2f8e9a4c
     Pseudo is Ultrasoft + core correction, Zval = 22.0
     Generated using "atomic" code by A. Dal Corso  v.6.1 svn rev. 13369
     Using radial grid of 1255 points,  8 beta functions with:
                l(1) =   0
                l(2) =   0
                l(3) =   1
                l(4) =   1
                l(5) =   2
                l(6) =   2
                l(7) =   3
                l(8) =   3
     Q(r) pseudized with 0 coefficients

     atomic species   valence    mass     pseudopotential
        O              6.00    15.99900      O( 1.00)
        Ce            22.00   140.12000     Ce( 1.00)

     Simplified LDA+U calculation (l_max = 1) with parameters (eV):
     atomic species    L          U    alpha       J0     beta
        O              1     4.0000   0.0000   0.0000   0.0000

     48 Sym. Ops., with inversion, found

   Cartesian axes

     site n.     atom                  positions (alat units)
         1           Ce  tau(   1) = (   0.0000000   0.0000000   0.0000000  )
         2           O   tau(   2) = (   0.2500000   0.2500000   0.2500000  )
         3           O   tau(   3) = (   0.7500000   0.7500000   0.7500000  )

     number of k points=     6
                       cart. coord. in units 2pi/alat
        k(    1) = (  -0.1666667   0.1666667   0.1666667), wk =   0.1481481
        k(    2) = (   0.5000000  -0.5000000   0.8333333), wk =   0.4444444
        k(    3) = (   0.1666667  -0.1666667   0.5000000), wk =   0.4444444
        k(    4) = (  -0.1666667  -1.1666667   0.1666667), wk =   0.4444444
        k(    5) = (  -0.5000000  -0.8333333  -0.1666667), wk =   0.4444444
        k(    6) = (   0.5000000  -0.5000000  -0.5000000), wk =   0.0740741

     Check: negative/imaginary core charge=   -0.000014    0.000000

     Initial potential from superposition of free atoms

     starting charge   33.99439, renormalised to   34.00000

[...]

     starting charge   33.99439, renormalised to   34.00000
     Number of +U iterations with fixed ns =  0
     Starting occupations:
 --- enter write_ns ---
 LDA+U parameters:
U( 1)     =  4.00000000
alpha( 1) =  0.00000000
atom    2   Tr[ns(na)] =   4.00000
    eigenvalues:
  0.667  0.667  0.667
    eigenvectors:
  1.000  0.000  0.000
  0.000  1.000  0.000
  0.000  0.000  1.000
    occupations:
  0.667  0.000  0.000
  0.000  0.667  0.000
  0.000  0.000  0.667
atom    3   Tr[ns(na)] =   4.00000
    eigenvalues:
  0.667  0.667  0.667
    eigenvectors:
  1.000  0.000  0.000
  0.000  1.000  0.000
  0.000  0.000  1.000
    occupations:
  0.667  0.000  0.000
  0.000  0.667  0.000
  0.000  0.000  0.667
N of occupied +U levels =    8.000000
 --- exit write_ns ---

[...]

     starting charge   33.99439, renormalised to   34.00000
     Number of +U iterations with fixed ns =  0
     Starting occupations:
 --- enter write_ns ---
 LDA+U parameters:
U( 1)     =  4.00000000
alpha( 1) =  0.00000000
atom    2   Tr[ns(na)] =   4.00000
    eigenvalues:
  0.667  0.667  0.667
    eigenvectors:
  1.000  0.000  0.000
  0.000  1.000  0.000
  0.000  0.000  1.000
    occupations:
  0.667  0.000  0.000
  0.000  0.667  0.000
  0.000  0.000  0.667
atom    3   Tr[ns(na)] =   4.00000
    eigenvalues:
  0.667  0.667  0.667
    eigenvectors:
  1.000  0.000  0.000
  0.000  1.000  0.000
  0.000  0.000  1.000
    occupations:
  0.667  0.000  0.000
  0.000  0.667  0.000
  0.000  0.000  0.667
N of occupied +U levels =    8.000000
 --- exit write_ns ---
     Number of +U iterations with fixed ns =  0
     Starting occupations:
 --- enter write_ns ---
 LDA+U parameters:
U( 1)     =  4.00000000
alpha( 1) =  0.00000000
atom    2   Tr[ns(na)] =   4.00000
    eigenvalues:
  0.667  0.667  0.667
    eigenvectors:
  1.000  0.000  0.000
  0.000  1.000  0.000
  0.000  0.000  1.000
    occupations:
  0.667  0.000  0.000
  0.000  0.667  0.000
  0.000  0.000  0.667
atom    3   Tr[ns(na)] =   4.00000
    eigenvalues:
  0.667  0.667  0.667
    eigenvectors:
  1.000  0.000  0.000
  0.000  1.000  0.000
  0.000  0.000  1.000
    occupations:
  0.667  0.000  0.000
  0.000  0.667  0.000
  0.000  0.000  0.667
N of occupied +U levels =    8.000000
 --- exit write_ns ---

     Check: negative/imaginary core charge=   -0.000014    0.000000

     Initial potential from superposition of free atoms

     starting charge   33.99439, renormalised to   34.00000
     Number of +U iterations with fixed ns =  0
     Starting occupations:
 --- enter write_ns ---
 LDA+U parameters:
U( 1)     =  4.00000000
alpha( 1) =  0.00000000
atom    2   Tr[ns(na)] =   4.00000
    eigenvalues:
  0.667  0.667  0.667
    eigenvectors:
  1.000  0.000  0.000
  0.000  1.000  0.000
  0.000  0.000  1.000
    occupations:
  0.667  0.000  0.000
  0.000  0.667  0.000
  0.000  0.000  0.667
atom    3   Tr[ns(na)] =   4.00000
    eigenvalues:
  0.667  0.667  0.667
    eigenvectors:
  1.000  0.000  0.000
  0.000  1.000  0.000
  0.000  0.000  1.000
    occupations:
  0.667  0.000  0.000
  0.000  0.667  0.000
  0.000  0.000  0.667
N of occupied +U levels =    8.000000
 --- exit write_ns ---
 Atomic wfc used for LDA+U Projector are NOT orthogonalized
 Atomic wfc used for LDA+U Projector are NOT orthogonalized
 Atomic wfc used for LDA+U Projector are NOT orthogonalized
 Atomic wfc used for LDA+U Projector are NOT orthogonalized
     Starting wfc are   30 randomized atomic wfcs
     Starting wfc are   30 randomized atomic wfcs
     Starting wfc are   30 randomized atomic wfcs
     Starting wfc are   30 randomized atomic wfcs

     Self-consistent Calculation

     iteration #  1     ecut=    60.00 Ry     beta=0.70
     Davidson diagonalization with overlap

[...]

     Self-consistent Calculation

     iteration #  1     ecut=    60.00 Ry     beta=0.70
     Davidson diagonalization with overlap
     ethr =  1.00E-02,  avg # of iterations =  3.0
     ethr =  1.00E-02,  avg # of iterations =  3.0
     ethr =  1.00E-02,  avg # of iterations =  3.0
     ethr =  1.00E-02,  avg # of iterations =  3.0
 --- enter write_ns ---
 LDA+U parameters:
U( 1)     =  4.00000000
alpha( 1) =  0.00000000
atom    2   Tr[ns(na)] =   5.85429
    eigenvalues:
  0.976  0.976  0.976
    eigenvectors:
  0.521  0.132  0.347
  0.439  0.013  0.548
  0.040  0.854  0.105
    occupations:
  0.976 -0.000  0.000
 -0.000  0.976 -0.000
  0.000 -0.000  0.976
atom    3   Tr[ns(na)] =   5.85429
    eigenvalues:
  0.976  0.976  0.976
    eigenvectors:
  0.365  0.242  0.393
  0.466  0.007  0.526
  0.169  0.751  0.081
    occupations:
  0.976 -0.000  0.000
 -0.000  0.976 -0.000
  0.000 -0.000  0.976
N of occupied +U levels =   11.708575
 --- exit write_ns ---
 --- enter write_ns ---
 LDA+U parameters:
U( 1)     =  4.00000000
alpha( 1) =  0.00000000
atom    2   Tr[ns(na)] =   5.85429
    eigenvalues:
  0.976  0.976  0.976
    eigenvectors:
  0.521  0.132  0.347
  0.439  0.013  0.548
  0.040  0.854  0.105
    occupations:
  0.976 -0.000  0.000
 -0.000  0.976 -0.000
  0.000 -0.000  0.976
atom    3   Tr[ns(na)] =   5.85429
    eigenvalues:
  0.976  0.976  0.976
    eigenvectors:
  0.365  0.242  0.393
  0.466  0.007  0.526
  0.169  0.751  0.081
    occupations:
  0.976 -0.000  0.000
 -0.000  0.976 -0.000
  0.000 -0.000  0.976
N of occupied +U levels =   11.708575
 --- exit write_ns ---
 --- enter write_ns ---
 LDA+U parameters:
U( 1)     =  4.00000000
alpha( 1) =  0.00000000
atom    2   Tr[ns(na)] =   5.85429
    eigenvalues:
  0.976  0.976  0.976
    eigenvectors:
  0.521  0.132  0.347
  0.439  0.013  0.548
  0.040  0.854  0.105
    occupations:
  0.976 -0.000  0.000
 -0.000  0.976 -0.000
  0.000 -0.000  0.976
atom    3   Tr[ns(na)] =   5.85429
    eigenvalues:
  0.976  0.976  0.976
    eigenvectors:
  0.365  0.242  0.393
  0.466  0.007  0.526
  0.169  0.751  0.081
    occupations:
  0.976 -0.000  0.000
 -0.000  0.976 -0.000
  0.000 -0.000  0.976
N of occupied +U levels =   11.708575
 --- exit write_ns ---
 --- enter write_ns ---
 LDA+U parameters:
U( 1)     =  4.00000000
alpha( 1) =  0.00000000
atom    2   Tr[ns(na)] =   5.85429
    eigenvalues:
  0.976  0.976  0.976
    eigenvectors:
  0.521  0.132  0.347
  0.439  0.013  0.548
  0.040  0.854  0.105
    occupations:
  0.976 -0.000  0.000
 -0.000  0.976 -0.000
  0.000 -0.000  0.976
atom    3   Tr[ns(na)] =   5.85429
    eigenvalues:
  0.976  0.976  0.976
    eigenvectors:
  0.365  0.242  0.393
  0.466  0.007  0.526
  0.169  0.751  0.081
    occupations:
  0.976 -0.000  0.000
 -0.000  0.976 -0.000
  0.000 -0.000  0.976
N of occupied +U levels =   11.708575
 --- exit write_ns ---

     total energy              =    -496.87906834 Ry
     Harris-Foulkes estimate   =    -498.54046762 Ry
     estimated scf accuracy    <       2.30745318 Ry

[...]

     iteration #  2     ecut=    60.00 Ry     beta=0.70
     Davidson diagonalization with overlap
     ethr =  6.79E-03,  avg # of iterations =  6.3
     ethr =  6.79E-03,  avg # of iterations =  6.3
     ethr =  6.79E-03,  avg # of iterations =  6.3
     ethr =  6.79E-03,  avg # of iterations =  6.3

[...]

     iteration # 50     ecut=    60.00 Ry     beta=0.70
     Davidson diagonalization with overlap

[...]

     total energy              =    -497.97602597 Ry
     Harris-Foulkes estimate   =    -497.97602610 Ry
     estimated scf accuracy    <       0.00000067 Ry

     iteration # 50     ecut=    60.00 Ry     beta=0.70
     Davidson diagonalization with overlap
     ethr =  8.30E-10,  avg # of iterations =  4.0

     End of self-consistent calculation
 --- enter write_ns ---
 LDA+U parameters:
U( 1)     =  4.00000000
alpha( 1) =  0.00000000
atom    2   Tr[ns(na)] =   5.46681
    eigenvalues:
  0.911  0.911  0.911
    eigenvectors:
  0.452  0.178  0.370
  0.474  0.003  0.523
  0.074  0.819  0.107
    occupations:
  0.911 -0.000  0.000
 -0.000  0.911 -0.000
  0.000 -0.000  0.911
atom    3   Tr[ns(na)] =   5.46681
    eigenvalues:
  0.911  0.911  0.911
    eigenvectors:
  0.470  0.176  0.354
  0.485  0.019  0.496
  0.046  0.805  0.150
    occupations:
  0.911 -0.000  0.000
 -0.000  0.911 -0.000
  0.000 -0.000  0.911
N of occupied +U levels =   10.933628
 --- exit write_ns ---

          k =-0.1667 0.1667 0.1667 (  2100 PWs)   bands (ev):

   -91.1481 -91.1481 -91.0922 -91.0922 -91.0530 -21.1117  -4.8818  -3.1374
    -3.1374  -2.9622  -1.8851   7.7006   7.7006   8.0927  10.3509  10.5538
    10.5538

          k = 0.5000-0.5000 0.8333 (  2090 PWs)   bands (ev):

[...]

     highest occupied level (ev):    11.1159

!    total energy              =    -497.97602603 Ry
     Harris-Foulkes estimate   =    -497.97602603 Ry
     estimated scf accuracy    <          2.1E-09 Ry

     The total energy is the sum of the following terms:

     one-electron contribution =    -265.24475319 Ry
     hartree contribution      =     134.43275653 Ry
     xc contribution           =     -68.92281832 Ry
     ewald contribution        =    -298.38403502 Ry
     Hubbard energy            =       0.14282399 Ry

     convergence has been achieved in  50 iterations

[...]

     End of self-consistent calculation
 --- enter write_ns ---
 LDA+U parameters:
U( 1)     =  4.00000000
alpha( 1) =  0.00000000
atom    2   Tr[ns(na)] =   5.46681
    eigenvalues:
  0.911  0.911  0.911
    eigenvectors:
  0.452  0.178  0.370
  0.474  0.003  0.523
  0.074  0.819  0.107
    occupations:
  0.911 -0.000  0.000
 -0.000  0.911 -0.000
  0.000 -0.000  0.911
atom    3   Tr[ns(na)] =   5.46681
    eigenvalues:
  0.911  0.911  0.911
    eigenvectors:
  0.470  0.176  0.354
  0.485  0.019  0.496
  0.046  0.805  0.150
    occupations:
  0.911 -0.000  0.000
 -0.000  0.911 -0.000
  0.000 -0.000  0.911
N of occupied +U levels =   10.933628
 --- exit write_ns ---

[...]

          k =-0.5000-0.8333-0.1667 (  2100 PWs)   bands (ev):

[...]

          k = 0.5000-0.5000-0.5000 (  2120 PWs)   bands (ev):

   -91.3699 -91.1974 -91.1974 -91.1011 -91.1011 -21.0822  -6.4357  -3.5582
    -3.3775  -3.3775  -0.1380   8.4346   8.4346   9.7474   9.7969  10.3617
    10.3617

     highest occupied level (ev):    11.1159

!    total energy              =    -497.97602603 Ry
     Harris-Foulkes estimate   =    -497.97602603 Ry
     estimated scf accuracy    <          2.1E-09 Ry

     The total energy is the sum of the following terms:

     one-electron contribution =    -265.24475319 Ry
     hartree contribution      =     134.43275653 Ry
     xc contribution           =     -68.92281832 Ry
     ewald contribution        =    -298.38403502 Ry
     Hubbard energy            =       0.14282399 Ry

     convergence has been achieved in  50 iterations

     Forces acting on atoms (cartesian axes, Ry/au):

     atom    1 type  2   force =     0.00000000    0.00000000    0.00000000
     atom    2 type  1   force =     0.00000000    0.00000000    0.00000000
     atom    3 type  1   force =     0.00000000    0.00000000    0.00000000

     Total force =     0.000000     Total SCF correction =     0.000000

     Computing stress (Cartesian axis) and pressure

[...]

     Forces acting on atoms (cartesian axes, Ry/au):

     atom    1 type  2   force =     0.00000000    0.00000000    0.00000000
     atom    2 type  1   force =     0.00000000    0.00000000    0.00000000
     atom    3 type  1   force =     0.00000000    0.00000000    0.00000000

     Total force =     0.000000     Total SCF correction =     0.000000

     Computing stress (Cartesian axis) and pressure

          total   stress  (Ry/bohr**3)                   (kbar)     P=-4539.14
  -0.03085645  -0.00000000  -0.00000000      -4539.14     -0.00     -0.00
  -0.00000000  -0.03085645   0.00000000         -0.00  -4539.14      0.00
  -0.00000000   0.00000000  -0.03085645         -0.00      0.00  -4539.14

     Writing output data file cerium.save

     General routines

     Hubbard U routines

   This run was terminated on:   1:33:45  18Apr2018

   JOB DONE.
          total   stress  (Ry/bohr**3)                   (kbar)     P=-4539.14
  -0.03085645  -0.00000000  -0.00000000      -4539.14     -0.00     -0.00
  -0.00000000  -0.03085645   0.00000000         -0.00  -4539.14      0.00
  -0.00000000   0.00000000  -0.03085645         -0.00      0.00  -4539.14

[...]

   JOB DONE.
          total   stress  (Ry/bohr**3)                   (kbar)     P=-4539.14
  -0.03085645  -0.00000000  -0.00000000      -4539.14     -0.00     -0.00
  -0.00000000  -0.03085645   0.00000000         -0.00  -4539.14      0.00
  -0.00000000   0.00000000  -0.03085645         -0.00      0.00  -4539.14

     Writing output data file cerium.save

     General routines

     Hubbard U routines

   This run was terminated on:   1:33:57  18Apr2018

   JOB DONE.