     Program PWSCF v.6.1 (svn rev. 13369) starts on 14May2018 at 22:57:32

     Reading input from ceo2.scf.david40.in
     Message from routine read_cards :
     DEPRECATED: no units specified in ATOMIC_POSITIONS card
     Message from routine read_cards :
     ATOMIC_POSITIONS: units set to alat

     Current dimensions of program PWSCF are:
     Max number of different atomic species (ntypx) = 10
     Max number of k-points (npk) =  40000
     Max angular momentum in pseudopotentials (lmaxx) =  3

[...]

     Current dimensions of program PWSCF are:
     Max number of different atomic species (ntypx) = 10
     Max number of k-points (npk) =  40000
     Max angular momentum in pseudopotentials (lmaxx) =  3

     Program PWSCF v.6.1 (svn rev. 13369) starts on 14May2018 at 22:57:32

[...]

     Current dimensions of program PWSCF are:
     Max number of different atomic species (ntypx) = 10
     Max number of k-points (npk) =  40000
     Max angular momentum in pseudopotentials (lmaxx) =  3
     Program PWSCF v.6.1 (svn rev. 13369) starts on 14May2018 at 22:57:32

     Reading input from ceo2.scf.david40.in
     Message from routine read_cards :
     DEPRECATED: no units specified in ATOMIC_POSITIONS card
     Message from routine read_cards :
     ATOMIC_POSITIONS: units set to alat

     Current dimensions of program PWSCF are:
     Max number of different atomic species (ntypx) = 10
     Max number of k-points (npk) =  40000
     Max angular momentum in pseudopotentials (lmaxx) =  3
               file O.pbe-nl-rrkjus_psl.1.0.0.UPF: wavefunction(s)  2S renormalized
               file O.pbe-nl-rrkjus_psl.1.0.0.UPF: wavefunction(s)  2S renormalized
               file O.pbe-nl-rrkjus_psl.1.0.0.UPF: wavefunction(s)  2S renormalized
               file O.pbe-nl-rrkjus_psl.1.0.0.UPF: wavefunction(s)  2S renormalized
               file Ce.pbe-spdfn-rrkjus_psl.1.0.0.UPF: wavefunction(s)  4F renormalized
               file Ce.pbe-spdfn-rrkjus_psl.1.0.0.UPF: wavefunction(s)  4F renormalized
               file Ce.pbe-spdfn-rrkjus_psl.1.0.0.UPF: wavefunction(s)  4F renormalized
               file Ce.pbe-spdfn-rrkjus_psl.1.0.0.UPF: wavefunction(s)  4F renormalized

     bravais-lattice index     =            2
     lattice parameter (alat)  =      10.2253  a.u.
     unit-cell volume          =     267.2811 (a.u.)^3
     number of atoms/cell      =            3
     number of atomic types    =            2
     number of electrons       =        34.00
     number of Kohn-Sham states=           17
     kinetic-energy cutoff     =      40.0000  Ry
     charge density cutoff     =     160.0000  Ry
     convergence threshold     =      1.0E-08
     mixing beta               =       0.7000
     number of iterations used =            8  plain     mixing
     Exchange-correlation      = PBE ( 1  4  3  4 0 0)

     celldm(1)=  10.225300  celldm(2)=   0.000000  celldm(3)=   0.000000
     celldm(4)=   0.000000  celldm(5)=   0.000000  celldm(6)=   0.000000

     crystal axes: (cart. coord. in units of alat)
               a(1) = (  -0.500000   0.000000   0.500000 )
               a(2) = (   0.000000   0.500000   0.500000 )
               a(3) = (  -0.500000   0.500000   0.000000 )

     reciprocal axes: (cart. coord. in units 2 pi/alat)
               b(1) = ( -1.000000 -1.000000  1.000000 )
               b(2) = (  1.000000  1.000000  1.000000 )
               b(3) = ( -1.000000  1.000000 -1.000000 )

     PseudoPot. # 1 for  O read from file:
     /home/dmitry/qe/qe-6.1/pseudo/O.pbe-nl-rrkjus_psl.1.0.0.UPF
     MD5 check sum: 41aa6daaf7b486e514118ed2fcffca44
     Pseudo is Ultrasoft + core correction, Zval =  6.0
     Generated using "atomic" code by A. Dal Corso  v.6.1 svn rev. 13369
     Using radial grid of 1095 points,  4 beta functions with:
                l(1) =   0
                l(2) =   0
                l(3) =   1
                l(4) =   1
     Q(r) pseudized with 0 coefficients

     PseudoPot. # 2 for Ce read from file:
     /home/dmitry/qe/qe-6.1/pseudo/Ce.pbe-spdfn-rrkjus_psl.1.0.0.UPF
     MD5 check sum: 584ada09c8d63c147a4eb0bd2f8e9a4c
     Pseudo is Ultrasoft + core correction, Zval = 22.0
     Generated using "atomic" code by A. Dal Corso  v.6.1 svn rev. 13369
     Using radial grid of 1255 points,  8 beta functions with:
                l(1) =   0
                l(2) =   0
                l(3) =   1
                l(4) =   1
                l(5) =   2
                l(6) =   2
                l(7) =   3
                l(8) =   3
     Q(r) pseudized with 0 coefficients

     atomic species   valence    mass     pseudopotential
        O              6.00    15.99900      O( 1.00)
        Ce            22.00   140.12000     Ce( 1.00)

     Simplified LDA+U calculation (l_max = 1) with parameters (eV):
     atomic species    L          U    alpha       J0     beta
        O              1     4.0000   0.0000   0.0000   0.0000

     48 Sym. Ops., with inversion, found

   Cartesian axes

     site n.     atom                  positions (alat units)
         1           Ce  tau(   1) = (   0.0000000   0.0000000   0.0000000  )
         2           O   tau(   2) = (   0.2500000   0.2500000   0.2500000  )
         3           O   tau(   3) = (   0.7500000   0.7500000   0.7500000  )

     number of k points=     6
                       cart. coord. in units 2pi/alat
        k(    1) = (  -0.1666667   0.1666667   0.1666667), wk =   0.1481481
        k(    2) = (   0.5000000  -0.5000000   0.8333333), wk =   0.4444444
        k(    3) = (   0.1666667  -0.1666667   0.5000000), wk =   0.4444444
        k(    4) = (  -0.1666667  -1.1666667   0.1666667), wk =   0.4444444
        k(    5) = (  -0.5000000  -0.8333333  -0.1666667), wk =   0.4444444
        k(    6) = (   0.5000000  -0.5000000  -0.5000000), wk =   0.0740741

[...]

     bravais-lattice index     =            2
     lattice parameter (alat)  =      10.2253  a.u.
     unit-cell volume          =     267.2811 (a.u.)^3
     number of atoms/cell      =            3
     number of atomic types    =            2
     number of electrons       =        34.00
     number of Kohn-Sham states=           17
     kinetic-energy cutoff     =      40.0000  Ry
     charge density cutoff     =     160.0000  Ry
     convergence threshold     =      1.0E-08
     mixing beta               =       0.7000
     number of iterations used =            8  plain     mixing
     Exchange-correlation      = PBE ( 1  4  3  4 0 0)

     celldm(1)=  10.225300  celldm(2)=   0.000000  celldm(3)=   0.000000
     celldm(4)=   0.000000  celldm(5)=   0.000000  celldm(6)=   0.000000

     crystal axes: (cart. coord. in units of alat)
               a(1) = (  -0.500000   0.000000   0.500000 )
               a(2) = (   0.000000   0.500000   0.500000 )
               a(3) = (  -0.500000   0.500000   0.000000 )

     reciprocal axes: (cart. coord. in units 2 pi/alat)
               b(1) = ( -1.000000 -1.000000  1.000000 )
               b(2) = (  1.000000  1.000000  1.000000 )
               b(3) = ( -1.000000  1.000000 -1.000000 )

     PseudoPot. # 1 for  O read from file:
     /home/dmitry/qe/qe-6.1/pseudo/O.pbe-nl-rrkjus_psl.1.0.0.UPF
     MD5 check sum: 41aa6daaf7b486e514118ed2fcffca44
     Pseudo is Ultrasoft + core correction, Zval =  6.0
     Generated using "atomic" code by A. Dal Corso  v.6.1 svn rev. 13369
     Using radial grid of 1095 points,  4 beta functions with:
                l(1) =   0
                l(2) =   0
                l(3) =   1
                l(4) =   1
     Q(r) pseudized with 0 coefficients

     PseudoPot. # 2 for Ce read from file:
     /home/dmitry/qe/qe-6.1/pseudo/Ce.pbe-spdfn-rrkjus_psl.1.0.0.UPF
     MD5 check sum: 584ada09c8d63c147a4eb0bd2f8e9a4c
     Pseudo is Ultrasoft + core correction, Zval = 22.0
     Generated using "atomic" code by A. Dal Corso  v.6.1 svn rev. 13369
     Using radial grid of 1255 points,  8 beta functions with:
                l(1) =   0
                l(2) =   0
                l(3) =   1
                l(4) =   1
                l(5) =   2
                l(6) =   2
                l(7) =   3
                l(8) =   3
     Q(r) pseudized with 0 coefficients

     atomic species   valence    mass     pseudopotential
        O              6.00    15.99900      O( 1.00)
        Ce            22.00   140.12000     Ce( 1.00)

     Simplified LDA+U calculation (l_max = 1) with parameters (eV):
     atomic species    L          U    alpha       J0     beta
        O              1     4.0000   0.0000   0.0000   0.0000

     48 Sym. Ops., with inversion, found

   Cartesian axes

     site n.     atom                  positions (alat units)
         1           Ce  tau(   1) = (   0.0000000   0.0000000   0.0000000  )
         2           O   tau(   2) = (   0.2500000   0.2500000   0.2500000  )
         3           O   tau(   3) = (   0.7500000   0.7500000   0.7500000  )

     number of k points=     6
                       cart. coord. in units 2pi/alat
        k(    1) = (  -0.1666667   0.1666667   0.1666667), wk =   0.1481481
        k(    2) = (   0.5000000  -0.5000000   0.8333333), wk =   0.4444444
        k(    3) = (   0.1666667  -0.1666667   0.5000000), wk =   0.4444444
        k(    4) = (  -0.1666667  -1.1666667   0.1666667), wk =   0.4444444
        k(    5) = (  -0.5000000  -0.8333333  -0.1666667), wk =   0.4444444
        k(    6) = (   0.5000000  -0.5000000  -0.5000000), wk =   0.0740741

     Check: negative/imaginary core charge=   -0.000025    0.000000

     Initial potential from superposition of free atoms
     Check: negative starting charge=   -0.000187

     starting charge   33.99439, renormalised to   34.00000

     negative rho (up, down):  1.869E-04 0.000E+00
     Number of +U iterations with fixed ns =  0
     Starting occupations:
 --- enter write_ns ---
 LDA+U parameters:
U( 1)     =  4.00000000
alpha( 1) =  0.00000000
atom    2   Tr[ns(na)] =   4.00000
    eigenvalues:
  0.667  0.667  0.667
    eigenvectors:
  1.000  0.000  0.000
  0.000  1.000  0.000
  0.000  0.000  1.000
    occupations:
  0.667  0.000  0.000
  0.000  0.667  0.000
  0.000  0.000  0.667
atom    3   Tr[ns(na)] =   4.00000
    eigenvalues:
  0.667  0.667  0.667
    eigenvectors:
  1.000  0.000  0.000
  0.000  1.000  0.000
  0.000  0.000  1.000
    occupations:
  0.667  0.000  0.000
  0.000  0.667  0.000
  0.000  0.000  0.667
N of occupied +U levels =    8.000000
 --- exit write_ns ---

[...]

     negative rho (up, down):  1.869E-04 0.000E+00
     Number of +U iterations with fixed ns =  0
     Starting occupations:
 --- enter write_ns ---
 LDA+U parameters:
U( 1)     =  4.00000000
alpha( 1) =  0.00000000
atom    2   Tr[ns(na)] =   4.00000
    eigenvalues:
  0.667  0.667  0.667
    eigenvectors:
  1.000  0.000  0.000
  0.000  1.000  0.000
  0.000  0.000  1.000
    occupations:
  0.667  0.000  0.000
  0.000  0.667  0.000
  0.000  0.000  0.667
atom    3   Tr[ns(na)] =   4.00000
    eigenvalues:
  0.667  0.667  0.667
    eigenvectors:
  1.000  0.000  0.000
  0.000  1.000  0.000
  0.000  0.000  1.000
    occupations:
  0.667  0.000  0.000
  0.000  0.667  0.000
  0.000  0.000  0.667
N of occupied +U levels =    8.000000
 --- exit write_ns ---

     Check: negative/imaginary core charge=   -0.000025    0.000000

     Initial potential from superposition of free atoms
     Check: negative starting charge=   -0.000187

     starting charge   33.99439, renormalised to   34.00000

     negative rho (up, down):  1.869E-04 0.000E+00
     Number of +U iterations with fixed ns =  0
     Starting occupations:
 --- enter write_ns ---
 LDA+U parameters:
U( 1)     =  4.00000000
alpha( 1) =  0.00000000
atom    2   Tr[ns(na)] =   4.00000
    eigenvalues:
  0.667  0.667  0.667
    eigenvectors:
  1.000  0.000  0.000
  0.000  1.000  0.000
  0.000  0.000  1.000
    occupations:
  0.667  0.000  0.000
  0.000  0.667  0.000
  0.000  0.000  0.667
atom    3   Tr[ns(na)] =   4.00000
    eigenvalues:
  0.667  0.667  0.667
    eigenvectors:
  1.000  0.000  0.000
  0.000  1.000  0.000
  0.000  0.000  1.000
    occupations:
  0.667  0.000  0.000
  0.000  0.667  0.000
  0.000  0.000  0.667
N of occupied +U levels =    8.000000
 --- exit write_ns ---
 Atomic wfc used for LDA+U Projector are NOT orthogonalized
 Atomic wfc used for LDA+U Projector are NOT orthogonalized
 Atomic wfc used for LDA+U Projector are NOT orthogonalized
 Atomic wfc used for LDA+U Projector are NOT orthogonalized
     Starting wfc are   30 randomized atomic wfcs
     Starting wfc are   30 randomized atomic wfcs
     Starting wfc are   30 randomized atomic wfcs
     Starting wfc are   30 randomized atomic wfcs

     Self-consistent Calculation

     iteration #  1     ecut=    40.00 Ry     beta=0.70
     Davidson diagonalization with overlap

[...]

     Self-consistent Calculation

     iteration #  1     ecut=    40.00 Ry     beta=0.70
     Davidson diagonalization with overlap
     ethr =  1.00E-02,  avg # of iterations =  2.0
     ethr =  1.00E-02,  avg # of iterations =  2.0
     ethr =  1.00E-02,  avg # of iterations =  2.0
     ethr =  1.00E-02,  avg # of iterations =  2.0
 --- enter write_ns ---
 LDA+U parameters:
U( 1)     =  4.00000000
alpha( 1) =  0.00000000
atom    2   Tr[ns(na)] =   5.92369
    eigenvalues:
  0.987  0.987  0.987
    eigenvectors:
  0.403  0.213  0.384
  0.505  0.001  0.494
  0.092  0.786  0.122
    occupations:
  0.987 -0.000  0.000
 -0.000  0.987 -0.000
  0.000 -0.000  0.987
atom    3   Tr[ns(na)] =   5.92369
    eigenvalues:
  0.987  0.987  0.987
    eigenvectors:
  0.522  0.168  0.310
  0.387  0.001  0.612
  0.091  0.831  0.079
    occupations:
  0.987 -0.000  0.000
 -0.000  0.987 -0.000
  0.000 -0.000  0.987
N of occupied +U levels =   11.847387
 --- exit write_ns ---
 --- enter write_ns ---
 LDA+U parameters:
U( 1)     =  4.00000000
alpha( 1) =  0.00000000
atom    2   Tr[ns(na)] =   5.92369
    eigenvalues:
  0.987  0.987  0.987
    eigenvectors:
  0.403  0.213  0.384
  0.505  0.001  0.494
  0.092  0.786  0.122
    occupations:
  0.987 -0.000  0.000
 -0.000  0.987 -0.000
  0.000 -0.000  0.987
atom    3   Tr[ns(na)] =   5.92369
    eigenvalues:
  0.987  0.987  0.987
    eigenvectors:
  0.522  0.168  0.310
  0.387  0.001  0.612
  0.091  0.831  0.079
    occupations:
  0.987 -0.000  0.000
 -0.000  0.987 -0.000
  0.000 -0.000  0.987
N of occupied +U levels =   11.847387
 --- exit write_ns ---
 --- enter write_ns ---
 LDA+U parameters:
U( 1)     =  4.00000000
alpha( 1) =  0.00000000
atom    2   Tr[ns(na)] =   5.92369
    eigenvalues:
  0.987  0.987  0.987
    eigenvectors:
  0.403  0.213  0.384
  0.505  0.001  0.494
  0.092  0.786  0.122
    occupations:
  0.987 -0.000  0.000
 -0.000  0.987 -0.000
  0.000 -0.000  0.987
atom    3   Tr[ns(na)] =   5.92369
    eigenvalues:
  0.987  0.987  0.987
    eigenvectors:
  0.522  0.168  0.310
  0.387  0.001  0.612
  0.091  0.831  0.079
    occupations:
  0.987 -0.000  0.000
 -0.000  0.987 -0.000
  0.000 -0.000  0.987
N of occupied +U levels =   11.847387
 --- exit write_ns ---
 --- enter write_ns ---
 LDA+U parameters:
U( 1)     =  4.00000000
alpha( 1) =  0.00000000
atom    2   Tr[ns(na)] =   5.92369
    eigenvalues:
  0.987  0.987  0.987
    eigenvectors:
  0.403  0.213  0.384
  0.505  0.001  0.494
  0.092  0.786  0.122
    occupations:
  0.987 -0.000  0.000
 -0.000  0.987 -0.000
  0.000 -0.000  0.987
atom    3   Tr[ns(na)] =   5.92369
    eigenvalues:
  0.987  0.987  0.987
    eigenvectors:
  0.522  0.168  0.310
  0.387  0.001  0.612
  0.091  0.831  0.079
    occupations:
  0.987 -0.000  0.000
 -0.000  0.987 -0.000
  0.000 -0.000  0.987
N of occupied +U levels =   11.847387
 --- exit write_ns ---

     total energy              =    -486.85114573 Ry
     Harris-Foulkes estimate   =    -491.04095600 Ry
     estimated scf accuracy    <       5.68437726 Ry

[...]

     iteration #  2     ecut=    40.00 Ry     beta=0.70
     Davidson diagonalization with overlap
     ethr =  1.00E-02,  avg # of iterations =  6.2
     ethr =  1.00E-02,  avg # of iterations =  6.2
     ethr =  1.00E-02,  avg # of iterations =  6.2
     ethr =  1.00E-02,  avg # of iterations =  6.2

[...]

     iteration # 16     ecut=    40.00 Ry     beta=0.70
     Davidson diagonalization with overlap

     total energy              =    -488.80736586 Ry
     Harris-Foulkes estimate   =    -488.80736596 Ry
     estimated scf accuracy    <       0.00000034 Ry

     iteration # 16     ecut=    40.00 Ry     beta=0.70
     Davidson diagonalization with overlap
     ethr =  9.90E-10,  avg # of iterations =  4.3
     ethr =  9.90E-10,  avg # of iterations =  4.3
     ethr =  9.90E-10,  avg # of iterations =  4.3
     ethr =  9.90E-10,  avg # of iterations =  4.3

     End of self-consistent calculation
 --- enter write_ns ---
 LDA+U parameters:
U( 1)     =  4.00000000
alpha( 1) =  0.00000000
atom    2   Tr[ns(na)] =   5.63087
    eigenvalues:
  0.938  0.938  0.938
    eigenvectors:
  0.386  0.227  0.386
  0.540  0.006  0.454
  0.074  0.767  0.159
    occupations:
  0.938 -0.000  0.000
 -0.000  0.938 -0.000
  0.000 -0.000  0.938
atom    3   Tr[ns(na)] =   5.63087
    eigenvalues:
  0.938  0.938  0.938
    eigenvectors:
  0.330  0.244  0.426
  0.594  0.003  0.403
  0.077  0.752  0.171
    occupations:
  0.938 -0.000  0.000
 -0.000  0.938 -0.000
  0.000 -0.000  0.938
N of occupied +U levels =   11.261743
 --- exit write_ns ---

          k =-0.1667 0.1667 0.1667 (  1149 PWs)   bands (ev):

   -89.9529 -89.9529 -89.9409 -89.5841 -89.5841 -25.5853  -6.6745  -6.1742
    -6.1742  -2.8130  -1.9518   8.2900   8.2900   8.6217  11.0052  11.2619
    11.2619

          k = 0.5000-0.5000 0.8333 (  1144 PWs)   bands (ev):

[...]

     highest occupied level (ev):    11.7122

!    total energy              =    -488.80736596 Ry
     Harris-Foulkes estimate   =    -488.80736597 Ry
     estimated scf accuracy    <          2.7E-09 Ry

     The total energy is the sum of the following terms:

     one-electron contribution =    -248.09542282 Ry
     hartree contribution      =     124.98026330 Ry
     xc contribution           =     -67.41001681 Ry
     ewald contribution        =    -298.38403502 Ry
     Hubbard energy            =       0.10184539 Ry

     convergence has been achieved in  16 iterations

[...]

     End of self-consistent calculation
 --- enter write_ns ---
 LDA+U parameters:
U( 1)     =  4.00000000
alpha( 1) =  0.00000000
atom    2   Tr[ns(na)] =   5.63087
    eigenvalues:
  0.938  0.938  0.938
    eigenvectors:
  0.386  0.227  0.386
  0.540  0.006  0.454
  0.074  0.767  0.159
    occupations:
  0.938 -0.000  0.000
 -0.000  0.938 -0.000
  0.000 -0.000  0.938
atom    3   Tr[ns(na)] =   5.63087
    eigenvalues:
  0.938  0.938  0.938
    eigenvectors:
  0.330  0.244  0.426
  0.594  0.003  0.403
  0.077  0.752  0.171
    occupations:
  0.938 -0.000  0.000
 -0.000  0.938 -0.000
  0.000 -0.000  0.938
N of occupied +U levels =   11.261743
 --- exit write_ns ---

[...]

          k =-0.5000-0.8333-0.1667 (  1144 PWs)   bands (ev):

[...]

          k = 0.5000-0.5000-0.5000 (  1158 PWs)   bands (ev):

   -90.8407 -90.2240 -90.2240 -89.7750 -89.7750 -25.6073  -7.8676  -6.3313
    -6.3313  -2.8672  -0.8749   9.0664   9.0664   9.9960  10.1304  10.8261
    10.8261

     highest occupied level (ev):    11.7122

!    total energy              =    -488.80736596 Ry
     Harris-Foulkes estimate   =    -488.80736597 Ry
     estimated scf accuracy    <          2.7E-09 Ry

     The total energy is the sum of the following terms:

     one-electron contribution =    -248.09542282 Ry
     hartree contribution      =     124.98026330 Ry
     xc contribution           =     -67.41001681 Ry
     ewald contribution        =    -298.38403502 Ry
     Hubbard energy            =       0.10184539 Ry

     convergence has been achieved in  16 iterations

     Forces acting on atoms (cartesian axes, Ry/au):

     atom    1 type  2   force =    -0.00000000   -0.00000000    0.00000000
     atom    2 type  1   force =     0.00000000    0.00000000   -0.00000000
     atom    3 type  1   force =    -0.00000000   -0.00000000    0.00000000

     Total force =     0.000000     Total SCF correction =     0.000000

     Computing stress (Cartesian axis) and pressure

[...]

     Forces acting on atoms (cartesian axes, Ry/au):

     atom    1 type  2   force =    -0.00000000   -0.00000000    0.00000000
     atom    2 type  1   force =     0.00000000    0.00000000   -0.00000000
     atom    3 type  1   force =    -0.00000000   -0.00000000    0.00000000

     Total force =     0.000000     Total SCF correction =     0.000000

     Computing stress (Cartesian axis) and pressure

          total   stress  (Ry/bohr**3)                   (kbar)     P=********
  -0.08588668  -0.00000000  -0.00000000     -12634.36     -0.00     -0.00
  -0.00000000  -0.08588668   0.00000000         -0.00 -12634.36      0.00
  -0.00000000   0.00000000  -0.08588668         -0.00      0.00 -12634.36

     Writing output data file cerium.save

     General routines

     Hubbard U routines

   This run was terminated on:   0:24:29  15May2018

   JOB DONE.
          total   stress  (Ry/bohr**3)                   (kbar)     P=********
  -0.08588668  -0.00000000  -0.00000000     -12634.36     -0.00     -0.00
  -0.00000000  -0.08588668   0.00000000         -0.00 -12634.36      0.00
  -0.00000000   0.00000000  -0.08588668         -0.00      0.00 -12634.36

     Writing output data file cerium.save
          total   stress  (Ry/bohr**3)                   (kbar)     P=********
  -0.08588668  -0.00000000  -0.00000000     -12634.36     -0.00     -0.00
  -0.00000000  -0.08588668   0.00000000         -0.00 -12634.36      0.00
  -0.00000000   0.00000000  -0.08588668         -0.00      0.00 -12634.36

[...]

   JOB DONE.

[...]

   JOB DONE.
          total   stress  (Ry/bohr**3)                   (kbar)     P=********
  -0.08588668  -0.00000000  -0.00000000     -12634.36     -0.00     -0.00
  -0.00000000  -0.08588668   0.00000000         -0.00 -12634.36      0.00
  -0.00000000   0.00000000  -0.08588668         -0.00      0.00 -12634.36

     Writing output data file cerium.save

     General routines

     Hubbard U routines

   This run was terminated on:   0:24:34  15May2018

   JOB DONE.