     Program PWSCF v.6.1 (svn rev. 13369) starts on 14May2018 at 22: 1:57

     Reading input from ceo2.scf.david30.in
     Message from routine read_cards :
     DEPRECATED: no units specified in ATOMIC_POSITIONS card
     Message from routine read_cards :
     ATOMIC_POSITIONS: units set to alat

     Current dimensions of program PWSCF are:
     Max number of different atomic species (ntypx) = 10
     Max number of k-points (npk) =  40000
     Max angular momentum in pseudopotentials (lmaxx) =  3

[...]

     Current dimensions of program PWSCF are:
     Max number of different atomic species (ntypx) = 10
     Max number of k-points (npk) =  40000
     Max angular momentum in pseudopotentials (lmaxx) =  3

     Program PWSCF v.6.1 (svn rev. 13369) starts on 14May2018 at 22: 1:57

[...]

     Current dimensions of program PWSCF are:
     Max number of different atomic species (ntypx) = 10
     Max number of k-points (npk) =  40000
     Max angular momentum in pseudopotentials (lmaxx) =  3
     Program PWSCF v.6.1 (svn rev. 13369) starts on 14May2018 at 22: 1:57

     Reading input from ceo2.scf.david30.in
     Message from routine read_cards :
     DEPRECATED: no units specified in ATOMIC_POSITIONS card
     Message from routine read_cards :
     ATOMIC_POSITIONS: units set to alat

     Current dimensions of program PWSCF are:
     Max number of different atomic species (ntypx) = 10
     Max number of k-points (npk) =  40000
     Max angular momentum in pseudopotentials (lmaxx) =  3
               file O.pbe-nl-rrkjus_psl.1.0.0.UPF: wavefunction(s)  2S renormalized
               file O.pbe-nl-rrkjus_psl.1.0.0.UPF: wavefunction(s)  2S renormalized
               file O.pbe-nl-rrkjus_psl.1.0.0.UPF: wavefunction(s)  2S renormalized
               file O.pbe-nl-rrkjus_psl.1.0.0.UPF: wavefunction(s)  2S renormalized
               file Ce.pbe-spdfn-rrkjus_psl.1.0.0.UPF: wavefunction(s)  4F renormalized
               file Ce.pbe-spdfn-rrkjus_psl.1.0.0.UPF: wavefunction(s)  4F renormalized
               file Ce.pbe-spdfn-rrkjus_psl.1.0.0.UPF: wavefunction(s)  4F renormalized
               file Ce.pbe-spdfn-rrkjus_psl.1.0.0.UPF: wavefunction(s)  4F renormalized

     bravais-lattice index     =            2
     lattice parameter (alat)  =      10.2253  a.u.
     unit-cell volume          =     267.2811 (a.u.)^3
     number of atoms/cell      =            3
     number of atomic types    =            2
     number of electrons       =        34.00
     number of Kohn-Sham states=           17
     kinetic-energy cutoff     =      30.0000  Ry
     charge density cutoff     =     120.0000  Ry
     convergence threshold     =      1.0E-08
     mixing beta               =       0.7000
     number of iterations used =            8  plain     mixing
     Exchange-correlation      = PBE ( 1  4  3  4 0 0)

     celldm(1)=  10.225300  celldm(2)=   0.000000  celldm(3)=   0.000000
     celldm(4)=   0.000000  celldm(5)=   0.000000  celldm(6)=   0.000000

     crystal axes: (cart. coord. in units of alat)
               a(1) = (  -0.500000   0.000000   0.500000 )
               a(2) = (   0.000000   0.500000   0.500000 )
               a(3) = (  -0.500000   0.500000   0.000000 )

     reciprocal axes: (cart. coord. in units 2 pi/alat)
               b(1) = ( -1.000000 -1.000000  1.000000 )
               b(2) = (  1.000000  1.000000  1.000000 )
               b(3) = ( -1.000000  1.000000 -1.000000 )

     PseudoPot. # 1 for  O read from file:
     /home/dmitry/qe/qe-6.1/pseudo/O.pbe-nl-rrkjus_psl.1.0.0.UPF
     MD5 check sum: 41aa6daaf7b486e514118ed2fcffca44
     Pseudo is Ultrasoft + core correction, Zval =  6.0
     Generated using "atomic" code by A. Dal Corso  v.6.1 svn rev. 13369
     Using radial grid of 1095 points,  4 beta functions with:
                l(1) =   0
                l(2) =   0
                l(3) =   1
                l(4) =   1
     Q(r) pseudized with 0 coefficients

     PseudoPot. # 2 for Ce read from file:
     /home/dmitry/qe/qe-6.1/pseudo/Ce.pbe-spdfn-rrkjus_psl.1.0.0.UPF
     MD5 check sum: 584ada09c8d63c147a4eb0bd2f8e9a4c
     Pseudo is Ultrasoft + core correction, Zval = 22.0
     Generated using "atomic" code by A. Dal Corso  v.6.1 svn rev. 13369
     Using radial grid of 1255 points,  8 beta functions with:
                l(1) =   0
                l(2) =   0
                l(3) =   1
                l(4) =   1
                l(5) =   2
                l(6) =   2
                l(7) =   3
                l(8) =   3
     Q(r) pseudized with 0 coefficients

     atomic species   valence    mass     pseudopotential
        O              6.00    15.99900      O( 1.00)
        Ce            22.00   140.12000     Ce( 1.00)

     Simplified LDA+U calculation (l_max = 1) with parameters (eV):
     atomic species    L          U    alpha       J0     beta
        O              1     4.0000   0.0000   0.0000   0.0000

     48 Sym. Ops., with inversion, found

   Cartesian axes

     site n.     atom                  positions (alat units)
         1           Ce  tau(   1) = (   0.0000000   0.0000000   0.0000000  )
         2           O   tau(   2) = (   0.2500000   0.2500000   0.2500000  )
         3           O   tau(   3) = (   0.7500000   0.7500000   0.7500000  )

     number of k points=     6
                       cart. coord. in units 2pi/alat
        k(    1) = (  -0.1666667   0.1666667   0.1666667), wk =   0.1481481
        k(    2) = (   0.5000000  -0.5000000   0.8333333), wk =   0.4444444
        k(    3) = (   0.1666667  -0.1666667   0.5000000), wk =   0.4444444
        k(    4) = (  -0.1666667  -1.1666667   0.1666667), wk =   0.4444444
        k(    5) = (  -0.5000000  -0.8333333  -0.1666667), wk =   0.4444444
        k(    6) = (   0.5000000  -0.5000000  -0.5000000), wk =   0.0740741

[...]

     bravais-lattice index     =            2
     lattice parameter (alat)  =      10.2253  a.u.
     unit-cell volume          =     267.2811 (a.u.)^3
     number of atoms/cell      =            3
     number of atomic types    =            2
     number of electrons       =        34.00
     number of Kohn-Sham states=           17
     kinetic-energy cutoff     =      30.0000  Ry
     charge density cutoff     =     120.0000  Ry
     convergence threshold     =      1.0E-08
     mixing beta               =       0.7000
     number of iterations used =            8  plain     mixing
     Exchange-correlation      = PBE ( 1  4  3  4 0 0)

     celldm(1)=  10.225300  celldm(2)=   0.000000  celldm(3)=   0.000000
     celldm(4)=   0.000000  celldm(5)=   0.000000  celldm(6)=   0.000000

     crystal axes: (cart. coord. in units of alat)
               a(1) = (  -0.500000   0.000000   0.500000 )
               a(2) = (   0.000000   0.500000   0.500000 )
               a(3) = (  -0.500000   0.500000   0.000000 )

     reciprocal axes: (cart. coord. in units 2 pi/alat)
               b(1) = ( -1.000000 -1.000000  1.000000 )
               b(2) = (  1.000000  1.000000  1.000000 )
               b(3) = ( -1.000000  1.000000 -1.000000 )

     PseudoPot. # 1 for  O read from file:
     /home/dmitry/qe/qe-6.1/pseudo/O.pbe-nl-rrkjus_psl.1.0.0.UPF
     MD5 check sum: 41aa6daaf7b486e514118ed2fcffca44
     Pseudo is Ultrasoft + core correction, Zval =  6.0
     Generated using "atomic" code by A. Dal Corso  v.6.1 svn rev. 13369
     Using radial grid of 1095 points,  4 beta functions with:
                l(1) =   0
                l(2) =   0
                l(3) =   1
                l(4) =   1
     Q(r) pseudized with 0 coefficients

     PseudoPot. # 2 for Ce read from file:
     /home/dmitry/qe/qe-6.1/pseudo/Ce.pbe-spdfn-rrkjus_psl.1.0.0.UPF
     MD5 check sum: 584ada09c8d63c147a4eb0bd2f8e9a4c
     Pseudo is Ultrasoft + core correction, Zval = 22.0
     Generated using "atomic" code by A. Dal Corso  v.6.1 svn rev. 13369
     Using radial grid of 1255 points,  8 beta functions with:
                l(1) =   0
                l(2) =   0
                l(3) =   1
                l(4) =   1
                l(5) =   2
                l(6) =   2
                l(7) =   3
                l(8) =   3
     Q(r) pseudized with 0 coefficients

     atomic species   valence    mass     pseudopotential
        O              6.00    15.99900      O( 1.00)
        Ce            22.00   140.12000     Ce( 1.00)

     Simplified LDA+U calculation (l_max = 1) with parameters (eV):
     atomic species    L          U    alpha       J0     beta
        O              1     4.0000   0.0000   0.0000   0.0000

     48 Sym. Ops., with inversion, found

   Cartesian axes

     site n.     atom                  positions (alat units)
         1           Ce  tau(   1) = (   0.0000000   0.0000000   0.0000000  )
         2           O   tau(   2) = (   0.2500000   0.2500000   0.2500000  )
         3           O   tau(   3) = (   0.7500000   0.7500000   0.7500000  )

     number of k points=     6
                       cart. coord. in units 2pi/alat
        k(    1) = (  -0.1666667   0.1666667   0.1666667), wk =   0.1481481
        k(    2) = (   0.5000000  -0.5000000   0.8333333), wk =   0.4444444
        k(    3) = (   0.1666667  -0.1666667   0.5000000), wk =   0.4444444
        k(    4) = (  -0.1666667  -1.1666667   0.1666667), wk =   0.4444444
        k(    5) = (  -0.5000000  -0.8333333  -0.1666667), wk =   0.4444444
        k(    6) = (   0.5000000  -0.5000000  -0.5000000), wk =   0.0740741

     Check: negative/imaginary core charge=   -0.000180    0.000000

     Initial potential from superposition of free atoms
     Check: negative starting charge=   -0.000515

     starting charge   33.99439, renormalised to   34.00000

     negative rho (up, down):  5.149E-04 0.000E+00
     Number of +U iterations with fixed ns =  0
     Starting occupations:
 --- enter write_ns ---
 LDA+U parameters:
U( 1)     =  4.00000000
alpha( 1) =  0.00000000
atom    2   Tr[ns(na)] =   4.00000
    eigenvalues:
  0.667  0.667  0.667
    eigenvectors:
  1.000  0.000  0.000
  0.000  1.000  0.000
  0.000  0.000  1.000
    occupations:
  0.667  0.000  0.000
  0.000  0.667  0.000
  0.000  0.000  0.667
atom    3   Tr[ns(na)] =   4.00000
    eigenvalues:
  0.667  0.667  0.667
    eigenvectors:
  1.000  0.000  0.000
  0.000  1.000  0.000
  0.000  0.000  1.000
    occupations:
  0.667  0.000  0.000
  0.000  0.667  0.000
  0.000  0.000  0.667
N of occupied +U levels =    8.000000
 --- exit write_ns ---

[...]

     negative rho (up, down):  5.149E-04 0.000E+00
     Number of +U iterations with fixed ns =  0
     Starting occupations:
 --- enter write_ns ---
 LDA+U parameters:
U( 1)     =  4.00000000
alpha( 1) =  0.00000000
atom    2   Tr[ns(na)] =   4.00000
    eigenvalues:
  0.667  0.667  0.667
    eigenvectors:
  1.000  0.000  0.000
  0.000  1.000  0.000
  0.000  0.000  1.000
    occupations:
  0.667  0.000  0.000
  0.000  0.667  0.000
  0.000  0.000  0.667
atom    3   Tr[ns(na)] =   4.00000
    eigenvalues:
  0.667  0.667  0.667
    eigenvectors:
  1.000  0.000  0.000
  0.000  1.000  0.000
  0.000  0.000  1.000
    occupations:
  0.667  0.000  0.000
  0.000  0.667  0.000
  0.000  0.000  0.667
N of occupied +U levels =    8.000000
 --- exit write_ns ---

     Check: negative/imaginary core charge=   -0.000180    0.000000

     Initial potential from superposition of free atoms
     Check: negative starting charge=   -0.000515

     starting charge   33.99439, renormalised to   34.00000

     negative rho (up, down):  5.149E-04 0.000E+00
     Number of +U iterations with fixed ns =  0
     Starting occupations:
 --- enter write_ns ---
 LDA+U parameters:
U( 1)     =  4.00000000
alpha( 1) =  0.00000000
atom    2   Tr[ns(na)] =   4.00000
    eigenvalues:
  0.667  0.667  0.667
    eigenvectors:
  1.000  0.000  0.000
  0.000  1.000  0.000
  0.000  0.000  1.000
    occupations:
  0.667  0.000  0.000
  0.000  0.667  0.000
  0.000  0.000  0.667
atom    3   Tr[ns(na)] =   4.00000
    eigenvalues:
  0.667  0.667  0.667
    eigenvectors:
  1.000  0.000  0.000
  0.000  1.000  0.000
  0.000  0.000  1.000
    occupations:
  0.667  0.000  0.000
  0.000  0.667  0.000
  0.000  0.000  0.667
N of occupied +U levels =    8.000000
 --- exit write_ns ---
 Atomic wfc used for LDA+U Projector are NOT orthogonalized
 Atomic wfc used for LDA+U Projector are NOT orthogonalized
 Atomic wfc used for LDA+U Projector are NOT orthogonalized
     Starting wfc are   30 randomized atomic wfcs
     Starting wfc are   30 randomized atomic wfcs
     Starting wfc are   30 randomized atomic wfcs
 Atomic wfc used for LDA+U Projector are NOT orthogonalized
     Starting wfc are   30 randomized atomic wfcs

     Self-consistent Calculation

     iteration #  1     ecut=    30.00 Ry     beta=0.70
     Davidson diagonalization with overlap

[...]

     Self-consistent Calculation

     iteration #  1     ecut=    30.00 Ry     beta=0.70
     Davidson diagonalization with overlap
     ethr =  1.00E-02,  avg # of iterations =  2.0
     ethr =  1.00E-02,  avg # of iterations =  2.0
     ethr =  1.00E-02,  avg # of iterations =  2.0
     ethr =  1.00E-02,  avg # of iterations =  2.0
 --- enter write_ns ---
 LDA+U parameters:
U( 1)     =  4.00000000
alpha( 1) =  0.00000000
atom    2   Tr[ns(na)] =   5.89173
    eigenvalues:
  0.982  0.982  0.982
    eigenvectors:
  0.486  0.185  0.329
  0.466  0.024  0.510
  0.048  0.792  0.160
    occupations:
  0.982 -0.000  0.000
 -0.000  0.982 -0.000
  0.000 -0.000  0.982
atom    3   Tr[ns(na)] =   5.89173
    eigenvalues:
  0.982  0.982  0.982
    eigenvectors:
  0.447  0.207  0.347
  0.487  0.012  0.501
  0.066  0.781  0.152
    occupations:
  0.982 -0.000  0.000
 -0.000  0.982 -0.000
  0.000 -0.000  0.982
N of occupied +U levels =   11.783465
 --- exit write_ns ---

     negative rho (up, down):  1.351E-04 0.000E+00
 --- enter write_ns ---
 LDA+U parameters:
U( 1)     =  4.00000000
alpha( 1) =  0.00000000
atom    2   Tr[ns(na)] =   5.89173
    eigenvalues:
  0.982  0.982  0.982
    eigenvectors:
  0.486  0.185  0.329
  0.466  0.024  0.510
  0.048  0.792  0.160
    occupations:
  0.982 -0.000  0.000
 -0.000  0.982 -0.000
  0.000 -0.000  0.982
atom    3   Tr[ns(na)] =   5.89173
    eigenvalues:
  0.982  0.982  0.982
    eigenvectors:
  0.447  0.207  0.347
  0.487  0.012  0.501
  0.066  0.781  0.152
    occupations:
  0.982 -0.000  0.000
 -0.000  0.982 -0.000
  0.000 -0.000  0.982
N of occupied +U levels =   11.783465
 --- exit write_ns ---

[...]

     negative rho (up, down):  1.351E-04 0.000E+00
 --- enter write_ns ---
 LDA+U parameters:
U( 1)     =  4.00000000
alpha( 1) =  0.00000000
atom    2   Tr[ns(na)] =   5.89173
    eigenvalues:
  0.982  0.982  0.982
    eigenvectors:
  0.486  0.185  0.329
  0.466  0.024  0.510
  0.048  0.792  0.160
    occupations:
  0.982 -0.000  0.000
 -0.000  0.982 -0.000
  0.000 -0.000  0.982
atom    3   Tr[ns(na)] =   5.89173
    eigenvalues:
  0.982  0.982  0.982
    eigenvectors:
  0.447  0.207  0.347
  0.487  0.012  0.501
  0.066  0.781  0.152
    occupations:
  0.982 -0.000  0.000
 -0.000  0.982 -0.000
  0.000 -0.000  0.982
N of occupied +U levels =   11.783465
 --- exit write_ns ---

     negative rho (up, down):  1.351E-04 0.000E+00

     total energy              =    -472.93116785 Ry
     Harris-Foulkes estimate   =    -480.35284320 Ry
     estimated scf accuracy    <      10.57435275 Ry

[...]

     iteration #  2     ecut=    30.00 Ry     beta=0.70
     Davidson diagonalization with overlap
     ethr =  1.00E-02,  avg # of iterations =  4.3
     ethr =  1.00E-02,  avg # of iterations =  4.3
     ethr =  1.00E-02,  avg # of iterations =  4.3
     ethr =  1.00E-02,  avg # of iterations =  4.3

[...]

     iteration #  9     ecut=    30.00 Ry     beta=0.70
     Davidson diagonalization with overlap

     total energy              =    -476.07058351 Ry
     Harris-Foulkes estimate   =    -476.07058362 Ry
     estimated scf accuracy    <       0.00000021 Ry

     iteration #  9     ecut=    30.00 Ry     beta=0.70
     Davidson diagonalization with overlap
     ethr =  6.08E-10,  avg # of iterations =  2.3
     ethr =  6.08E-10,  avg # of iterations =  2.3

[...]

     End of self-consistent calculation
 --- enter write_ns ---
 LDA+U parameters:
U( 1)     =  4.00000000
alpha( 1) =  0.00000000
atom    2   Tr[ns(na)] =   5.69249
    eigenvalues:
  0.949  0.949  0.949
    eigenvectors:
  0.353  0.233  0.414
  0.527  0.001  0.473
  0.120  0.766  0.114
    occupations:
  0.949 -0.000  0.000
 -0.000  0.949 -0.000
  0.000 -0.000  0.949
atom    3   Tr[ns(na)] =   5.69249
    eigenvalues:
  0.949  0.949  0.949
    eigenvectors:
  0.614  0.094  0.292
  0.362  0.025  0.613
  0.024  0.881  0.096
    occupations:
  0.949 -0.000  0.000
 -0.000  0.949 -0.000
  0.000 -0.000  0.949
N of occupied +U levels =   11.384983
 --- exit write_ns ---

          k =-0.1667 0.1667 0.1667 (   748 PWs)   bands (ev):

   -83.4403 -82.3995 -82.3995 -81.7830 -81.7830 -30.1267  -9.5807  -9.3665
    -9.3665  -2.7041  -1.3692   8.8911   8.8911   9.1518  11.5704  11.9486
    11.9486

          k = 0.5000-0.5000 0.8333 (   745 PWs)   bands (ev):

[...]

     highest occupied level (ev):    12.2721

!    total energy              =    -476.07058356 Ry
     Harris-Foulkes estimate   =    -476.07058356 Ry
     estimated scf accuracy    <          3.2E-09 Ry

     The total energy is the sum of the following terms:

     one-electron contribution =    -227.79469138 Ry
     hartree contribution      =     116.39757895 Ry
     xc contribution           =     -66.37520850 Ry
     ewald contribution        =    -298.38403504 Ry
     Hubbard energy            =       0.08577241 Ry

     convergence has been achieved in   9 iterations

[...]

     End of self-consistent calculation
 --- enter write_ns ---
 LDA+U parameters:
U( 1)     =  4.00000000
alpha( 1) =  0.00000000
atom    2   Tr[ns(na)] =   5.69249
    eigenvalues:
  0.949  0.949  0.949
    eigenvectors:
  0.353  0.233  0.414
  0.527  0.001  0.473
  0.120  0.766  0.114
    occupations:
  0.949 -0.000  0.000
 -0.000  0.949 -0.000
  0.000 -0.000  0.949
atom    3   Tr[ns(na)] =   5.69249
    eigenvalues:
  0.949  0.949  0.949
    eigenvectors:
  0.614  0.094  0.292
  0.362  0.025  0.613
  0.024  0.881  0.096
    occupations:
  0.949 -0.000  0.000
 -0.000  0.949 -0.000
  0.000 -0.000  0.949
N of occupied +U levels =   11.384983
 --- exit write_ns ---

[...]

          k =-0.5000-0.8333-0.1667 (   734 PWs)   bands (ev):

[...]

          k = 0.5000-0.5000-0.5000 (   754 PWs)   bands (ev):

   -83.7456 -83.7456 -82.6056 -82.6056 -82.0818 -30.1725 -10.2625  -9.4827
    -9.4827  -2.3407  -1.0878   9.6455   9.6455  10.2841  10.3867  11.3159
    11.3159

     highest occupied level (ev):    12.2721

!    total energy              =    -476.07058356 Ry
     Harris-Foulkes estimate   =    -476.07058356 Ry
     estimated scf accuracy    <          3.2E-09 Ry

     The total energy is the sum of the following terms:

     one-electron contribution =    -227.79469138 Ry
     hartree contribution      =     116.39757895 Ry
     xc contribution           =     -66.37520850 Ry
     ewald contribution        =    -298.38403504 Ry
     Hubbard energy            =       0.08577241 Ry

     convergence has been achieved in   9 iterations

[...]

     Forces acting on atoms (cartesian axes, Ry/au):

     atom    1 type  2   force =    -0.00000000   -0.00000000   -0.00000000
     atom    2 type  1   force =     0.00000000    0.00000000    0.00000000
     atom    3 type  1   force =     0.00000000    0.00000000    0.00000000

     Total force =     0.000000     Total SCF correction =     0.000000

     Computing stress (Cartesian axis) and pressure

[...]

     negative rho (up, down):  3.918E-03 0.000E+00

     Forces acting on atoms (cartesian axes, Ry/au):

     atom    1 type  2   force =    -0.00000000   -0.00000000   -0.00000000
     atom    2 type  1   force =     0.00000000    0.00000000    0.00000000
     atom    3 type  1   force =     0.00000000    0.00000000    0.00000000

     Total force =     0.000000     Total SCF correction =     0.000000

     Computing stress (Cartesian axis) and pressure

     negative rho (up, down):  3.918E-03 0.000E+00
          total   stress  (Ry/bohr**3)                   (kbar)     P=********
  -0.13732616  -0.00000000  -0.00000000     -20201.37     -0.00     -0.00
  -0.00000000  -0.13732616   0.00000000         -0.00 -20201.37      0.00
  -0.00000000   0.00000000  -0.13732616         -0.00      0.00 -20201.37

     Writing output data file cerium.save

     General routines

     Hubbard U routines

   This run was terminated on:  22:35:40  14May2018

   JOB DONE.
          total   stress  (Ry/bohr**3)                   (kbar)     P=********
  -0.13732616  -0.00000000  -0.00000000     -20201.37     -0.00     -0.00
  -0.00000000  -0.13732616   0.00000000         -0.00 -20201.37      0.00
  -0.00000000   0.00000000  -0.13732616         -0.00      0.00 -20201.37

[...]

   JOB DONE.
          total   stress  (Ry/bohr**3)                   (kbar)     P=********
  -0.13732616  -0.00000000  -0.00000000     -20201.37     -0.00     -0.00
  -0.00000000  -0.13732616   0.00000000         -0.00 -20201.37      0.00
  -0.00000000   0.00000000  -0.13732616         -0.00      0.00 -20201.37

     Writing output data file cerium.save
          total   stress  (Ry/bohr**3)                   (kbar)     P=********
  -0.13732616  -0.00000000  -0.00000000     -20201.37     -0.00     -0.00
  -0.00000000  -0.13732616   0.00000000         -0.00 -20201.37      0.00
  -0.00000000   0.00000000  -0.13732616         -0.00      0.00 -20201.37

     Writing output data file cerium.save

[...]

   JOB DONE.

     General routines

     Hubbard U routines

   This run was terminated on:  22:35:50  14May2018

   JOB DONE.