     Program PWSCF v.6.1 (svn rev. 13369) starts on 14May2018 at 20:48:24

[...]

     Program PWSCF v.6.1 (svn rev. 13369) starts on 14May2018 at 20:48:24

     in publications or presentations arising from this work. More details at

     Reading input from ceo2.scf.david10.in
     Reading input from ceo2.scf.david10.in
     Reading input from ceo2.scf.david10.in
     Reading input from ceo2.scf.david10.in
     Message from routine read_cards :
     DEPRECATED: no units specified in ATOMIC_POSITIONS card
     Message from routine read_cards :
     Message from routine read_cards :
     DEPRECATED: no units specified in ATOMIC_POSITIONS card
     Message from routine read_cards :
     ATOMIC_POSITIONS: units set to alat
     Message from routine read_cards :
     DEPRECATED: no units specified in ATOMIC_POSITIONS card
     Message from routine read_cards :
     ATOMIC_POSITIONS: units set to alat
     ATOMIC_POSITIONS: units set to alat
     Message from routine read_cards :
     DEPRECATED: no units specified in ATOMIC_POSITIONS card
     Message from routine read_cards :
     ATOMIC_POSITIONS: units set to alat

     Current dimensions of program PWSCF are:
     Max number of different atomic species (ntypx) = 10
     Max number of k-points (npk) =  40000
     Max angular momentum in pseudopotentials (lmaxx) =  3

[...]

     Current dimensions of program PWSCF are:
     Max number of different atomic species (ntypx) = 10
     Max number of k-points (npk) =  40000
     Max angular momentum in pseudopotentials (lmaxx) =  3

     Current dimensions of program PWSCF are:
     Max number of different atomic species (ntypx) = 10
     Max number of k-points (npk) =  40000
     Max angular momentum in pseudopotentials (lmaxx) =  3
               file O.pbe-nl-rrkjus_psl.1.0.0.UPF: wavefunction(s)  2S renormalized
               file O.pbe-nl-rrkjus_psl.1.0.0.UPF: wavefunction(s)  2S renormalized
               file O.pbe-nl-rrkjus_psl.1.0.0.UPF: wavefunction(s)  2S renormalized
               file O.pbe-nl-rrkjus_psl.1.0.0.UPF: wavefunction(s)  2S renormalized
               file Ce.pbe-spdfn-rrkjus_psl.1.0.0.UPF: wavefunction(s)  4F renormalized
               file Ce.pbe-spdfn-rrkjus_psl.1.0.0.UPF: wavefunction(s)  4F renormalized
               file Ce.pbe-spdfn-rrkjus_psl.1.0.0.UPF: wavefunction(s)  4F renormalized
               file Ce.pbe-spdfn-rrkjus_psl.1.0.0.UPF: wavefunction(s)  4F renormalized

     bravais-lattice index     =            2
     lattice parameter (alat)  =      10.2253  a.u.
     unit-cell volume          =     267.2811 (a.u.)^3
     number of atoms/cell      =            3
     number of atomic types    =            2
     number of electrons       =        34.00
     number of Kohn-Sham states=           17
     kinetic-energy cutoff     =      10.0000  Ry
     charge density cutoff     =      40.0000  Ry
     convergence threshold     =      1.0E-08
     mixing beta               =       0.7000
     number of iterations used =            8  plain     mixing
     Exchange-correlation      = PBE ( 1  4  3  4 0 0)

     celldm(1)=  10.225300  celldm(2)=   0.000000  celldm(3)=   0.000000
     celldm(4)=   0.000000  celldm(5)=   0.000000  celldm(6)=   0.000000

     crystal axes: (cart. coord. in units of alat)
               a(1) = (  -0.500000   0.000000   0.500000 )
               a(2) = (   0.000000   0.500000   0.500000 )
               a(3) = (  -0.500000   0.500000   0.000000 )

     reciprocal axes: (cart. coord. in units 2 pi/alat)
               b(1) = ( -1.000000 -1.000000  1.000000 )
               b(2) = (  1.000000  1.000000  1.000000 )
               b(3) = ( -1.000000  1.000000 -1.000000 )

     PseudoPot. # 1 for  O read from file:
     /home/dmitry/qe/qe-6.1/pseudo/O.pbe-nl-rrkjus_psl.1.0.0.UPF
     MD5 check sum: 41aa6daaf7b486e514118ed2fcffca44
     Pseudo is Ultrasoft + core correction, Zval =  6.0
     Generated using "atomic" code by A. Dal Corso  v.6.1 svn rev. 13369
     Using radial grid of 1095 points,  4 beta functions with:
                l(1) =   0
                l(2) =   0
                l(3) =   1
                l(4) =   1
     Q(r) pseudized with 0 coefficients

     PseudoPot. # 2 for Ce read from file:
     /home/dmitry/qe/qe-6.1/pseudo/Ce.pbe-spdfn-rrkjus_psl.1.0.0.UPF
     MD5 check sum: 584ada09c8d63c147a4eb0bd2f8e9a4c
     Pseudo is Ultrasoft + core correction, Zval = 22.0
     Generated using "atomic" code by A. Dal Corso  v.6.1 svn rev. 13369
     Using radial grid of 1255 points,  8 beta functions with:
                l(1) =   0
                l(2) =   0
                l(3) =   1
                l(4) =   1
                l(5) =   2
                l(6) =   2
                l(7) =   3
                l(8) =   3
     Q(r) pseudized with 0 coefficients

     atomic species   valence    mass     pseudopotential
        O              6.00    15.99900      O( 1.00)
        Ce            22.00   140.12000     Ce( 1.00)

     Simplified LDA+U calculation (l_max = 1) with parameters (eV):
     atomic species    L          U    alpha       J0     beta
        O              1     4.0000   0.0000   0.0000   0.0000

     48 Sym. Ops., with inversion, found

   Cartesian axes

     site n.     atom                  positions (alat units)
         1           Ce  tau(   1) = (   0.0000000   0.0000000   0.0000000  )
         2           O   tau(   2) = (   0.2500000   0.2500000   0.2500000  )
         3           O   tau(   3) = (   0.7500000   0.7500000   0.7500000  )

     number of k points=     6
                       cart. coord. in units 2pi/alat
        k(    1) = (  -0.1666667   0.1666667   0.1666667), wk =   0.1481481
        k(    2) = (   0.5000000  -0.5000000   0.8333333), wk =   0.4444444
        k(    3) = (   0.1666667  -0.1666667   0.5000000), wk =   0.4444444
        k(    4) = (  -0.1666667  -1.1666667   0.1666667), wk =   0.4444444
        k(    5) = (  -0.5000000  -0.8333333  -0.1666667), wk =   0.4444444
        k(    6) = (   0.5000000  -0.5000000  -0.5000000), wk =   0.0740741

[...]

     bravais-lattice index     =            2
     lattice parameter (alat)  =      10.2253  a.u.
     unit-cell volume          =     267.2811 (a.u.)^3
     number of atoms/cell      =            3
     number of atomic types    =            2
     number of electrons       =        34.00
     number of Kohn-Sham states=           17
     kinetic-energy cutoff     =      10.0000  Ry
     charge density cutoff     =      40.0000  Ry
     convergence threshold     =      1.0E-08
     mixing beta               =       0.7000
     number of iterations used =            8  plain     mixing
     Exchange-correlation      = PBE ( 1  4  3  4 0 0)

     celldm(1)=  10.225300  celldm(2)=   0.000000  celldm(3)=   0.000000
     celldm(4)=   0.000000  celldm(5)=   0.000000  celldm(6)=   0.000000

     crystal axes: (cart. coord. in units of alat)
               a(1) = (  -0.500000   0.000000   0.500000 )
               a(2) = (   0.000000   0.500000   0.500000 )
               a(3) = (  -0.500000   0.500000   0.000000 )

     reciprocal axes: (cart. coord. in units 2 pi/alat)
               b(1) = ( -1.000000 -1.000000  1.000000 )
               b(2) = (  1.000000  1.000000  1.000000 )
               b(3) = ( -1.000000  1.000000 -1.000000 )

     PseudoPot. # 1 for  O read from file:
     /home/dmitry/qe/qe-6.1/pseudo/O.pbe-nl-rrkjus_psl.1.0.0.UPF
     MD5 check sum: 41aa6daaf7b486e514118ed2fcffca44
     Pseudo is Ultrasoft + core correction, Zval =  6.0
     Generated using "atomic" code by A. Dal Corso  v.6.1 svn rev. 13369
     Using radial grid of 1095 points,  4 beta functions with:
                l(1) =   0
                l(2) =   0
                l(3) =   1
                l(4) =   1
     Q(r) pseudized with 0 coefficients

     PseudoPot. # 2 for Ce read from file:
     /home/dmitry/qe/qe-6.1/pseudo/Ce.pbe-spdfn-rrkjus_psl.1.0.0.UPF
     MD5 check sum: 584ada09c8d63c147a4eb0bd2f8e9a4c
     Pseudo is Ultrasoft + core correction, Zval = 22.0
     Generated using "atomic" code by A. Dal Corso  v.6.1 svn rev. 13369
     Using radial grid of 1255 points,  8 beta functions with:
                l(1) =   0
                l(2) =   0
                l(3) =   1
                l(4) =   1
                l(5) =   2
                l(6) =   2
                l(7) =   3
                l(8) =   3
     Q(r) pseudized with 0 coefficients

     atomic species   valence    mass     pseudopotential
        O              6.00    15.99900      O( 1.00)
        Ce            22.00   140.12000     Ce( 1.00)

     Simplified LDA+U calculation (l_max = 1) with parameters (eV):
     atomic species    L          U    alpha       J0     beta
        O              1     4.0000   0.0000   0.0000   0.0000

     48 Sym. Ops., with inversion, found

   Cartesian axes

     site n.     atom                  positions (alat units)
         1           Ce  tau(   1) = (   0.0000000   0.0000000   0.0000000  )
         2           O   tau(   2) = (   0.2500000   0.2500000   0.2500000  )
         3           O   tau(   3) = (   0.7500000   0.7500000   0.7500000  )

     number of k points=     6
                       cart. coord. in units 2pi/alat
        k(    1) = (  -0.1666667   0.1666667   0.1666667), wk =   0.1481481
        k(    2) = (   0.5000000  -0.5000000   0.8333333), wk =   0.4444444
        k(    3) = (   0.1666667  -0.1666667   0.5000000), wk =   0.4444444
        k(    4) = (  -0.1666667  -1.1666667   0.1666667), wk =   0.4444444
        k(    5) = (  -0.5000000  -0.8333333  -0.1666667), wk =   0.4444444
        k(    6) = (   0.5000000  -0.5000000  -0.5000000), wk =   0.0740741

     Check: negative/imaginary core charge=   -0.002930    0.000000

     Initial potential from superposition of free atoms
     Check: negative starting charge=   -0.001168

     starting charge   33.99439, renormalised to   34.00000

     negative rho (up, down):  1.168E-03 0.000E+00
     Number of +U iterations with fixed ns =  0
     Starting occupations:
 --- enter write_ns ---
 LDA+U parameters:
U( 1)     =  4.00000000
alpha( 1) =  0.00000000
atom    2   Tr[ns(na)] =   4.00000
    eigenvalues:
  0.667  0.667  0.667
    eigenvectors:
  1.000  0.000  0.000
  0.000  1.000  0.000
  0.000  0.000  1.000
    occupations:
  0.667  0.000  0.000
  0.000  0.667  0.000
  0.000  0.000  0.667
atom    3   Tr[ns(na)] =   4.00000
    eigenvalues:
  0.667  0.667  0.667
    eigenvectors:
  1.000  0.000  0.000
  0.000  1.000  0.000
  0.000  0.000  1.000
    occupations:
  0.667  0.000  0.000
  0.000  0.667  0.000
  0.000  0.000  0.667
N of occupied +U levels =    8.000000
 --- exit write_ns ---

[...]

     negative rho (up, down):  1.168E-03 0.000E+00
     Number of +U iterations with fixed ns =  0
     Starting occupations:
 --- enter write_ns ---
 LDA+U parameters:
U( 1)     =  4.00000000
alpha( 1) =  0.00000000
atom    2   Tr[ns(na)] =   4.00000
    eigenvalues:
  0.667  0.667  0.667
    eigenvectors:
  1.000  0.000  0.000
  0.000  1.000  0.000
  0.000  0.000  1.000
    occupations:
  0.667  0.000  0.000
  0.000  0.667  0.000
  0.000  0.000  0.667
atom    3   Tr[ns(na)] =   4.00000
    eigenvalues:
  0.667  0.667  0.667
    eigenvectors:
  1.000  0.000  0.000
  0.000  1.000  0.000
  0.000  0.000  1.000
    occupations:
  0.667  0.000  0.000
  0.000  0.667  0.000
  0.000  0.000  0.667
N of occupied +U levels =    8.000000
 --- exit write_ns ---

     Check: negative/imaginary core charge=   -0.002930    0.000000

     Initial potential from superposition of free atoms
     Check: negative starting charge=   -0.001168

     starting charge   33.99439, renormalised to   34.00000

     negative rho (up, down):  1.168E-03 0.000E+00
     Number of +U iterations with fixed ns =  0
     Starting occupations:
 --- enter write_ns ---
 LDA+U parameters:
U( 1)     =  4.00000000
alpha( 1) =  0.00000000
atom    2   Tr[ns(na)] =   4.00000
    eigenvalues:
  0.667  0.667  0.667
    eigenvectors:
  1.000  0.000  0.000
  0.000  1.000  0.000
  0.000  0.000  1.000
    occupations:
  0.667  0.000  0.000
  0.000  0.667  0.000
  0.000  0.000  0.667
atom    3   Tr[ns(na)] =   4.00000
    eigenvalues:
  0.667  0.667  0.667
    eigenvectors:
  1.000  0.000  0.000
  0.000  1.000  0.000
  0.000  0.000  1.000
    occupations:
  0.667  0.000  0.000
  0.000  0.667  0.000
  0.000  0.000  0.667
N of occupied +U levels =    8.000000
 --- exit write_ns ---
 Atomic wfc used for LDA+U Projector are NOT orthogonalized
 Atomic wfc used for LDA+U Projector are NOT orthogonalized
     Starting wfc are   30 randomized atomic wfcs
     Starting wfc are   30 randomized atomic wfcs

     Self-consistent Calculation

     iteration #  1     ecut=    10.00 Ry     beta=0.70
     Davidson diagonalization with overlap

[...]

     iteration #  1     ecut=    10.00 Ry     beta=0.70
     Davidson diagonalization with overlap
 Atomic wfc used for LDA+U Projector are NOT orthogonalized
 Atomic wfc used for LDA+U Projector are NOT orthogonalized
     Starting wfc are   30 randomized atomic wfcs
     ethr =  1.00E-02,  avg # of iterations =  2.7
     ethr =  1.00E-02,  avg # of iterations =  2.7
     Starting wfc are   30 randomized atomic wfcs

[...]

     Self-consistent Calculation

     iteration #  1     ecut=    10.00 Ry     beta=0.70
     Davidson diagonalization with overlap
     ethr =  1.00E-02,  avg # of iterations =  2.7
     ethr =  1.00E-02,  avg # of iterations =  2.7
 --- enter write_ns ---
 LDA+U parameters:
U( 1)     =  4.00000000
alpha( 1) =  0.00000000
atom    2   Tr[ns(na)] =   4.64451
    eigenvalues:
  0.774  0.774  0.774
    eigenvectors:
  0.409  0.252  0.339
  0.443  0.000  0.556
  0.148  0.747  0.105
    occupations:
  0.774 -0.000  0.000
 -0.000  0.774 -0.000
  0.000 -0.000  0.774
atom    3   Tr[ns(na)] =   4.64451
    eigenvalues:
  0.774  0.774  0.774
    eigenvectors:
  0.149  0.354  0.497
  0.750  0.001  0.249
  0.102  0.645  0.253
    occupations:
  0.774 -0.000  0.000
 -0.000  0.774 -0.000
  0.000 -0.000  0.774
N of occupied +U levels =    9.289017
 --- exit write_ns ---
 --- enter write_ns ---
 LDA+U parameters:
U( 1)     =  4.00000000
alpha( 1) =  0.00000000
atom    2   Tr[ns(na)] =   4.64451
    eigenvalues:
  0.774  0.774  0.774
    eigenvectors:
  0.409  0.252  0.339
  0.443  0.000  0.556
  0.148  0.747  0.105
    occupations:
  0.774 -0.000  0.000
 -0.000  0.774 -0.000
  0.000 -0.000  0.774
atom    3   Tr[ns(na)] =   4.64451
    eigenvalues:
  0.774  0.774  0.774
    eigenvectors:
  0.149  0.354  0.497
  0.750  0.001  0.249
  0.102  0.645  0.253
    occupations:
  0.774 -0.000  0.000
 -0.000  0.774 -0.000
  0.000 -0.000  0.774
N of occupied +U levels =    9.289017
 --- exit write_ns ---

     total energy              =    -379.48878408 Ry
     Harris-Foulkes estimate   =    -425.31850452 Ry
     estimated scf accuracy    <      55.02963679 Ry

     iteration #  2     ecut=    10.00 Ry     beta=0.70
     Davidson diagonalization with overlap
 --- enter write_ns ---
 LDA+U parameters:
U( 1)     =  4.00000000
alpha( 1) =  0.00000000
atom    2   Tr[ns(na)] =   4.64451
    eigenvalues:
  0.774  0.774  0.774
    eigenvectors:
  0.409  0.252  0.339
  0.443  0.000  0.556
  0.148  0.747  0.105
    occupations:
  0.774 -0.000  0.000
 -0.000  0.774 -0.000
  0.000 -0.000  0.774
atom    3   Tr[ns(na)] =   4.64451
    eigenvalues:
  0.774  0.774  0.774
    eigenvectors:
  0.149  0.354  0.497
  0.750  0.001  0.249
  0.102  0.645  0.253
    occupations:
  0.774 -0.000  0.000
 -0.000  0.774 -0.000
  0.000 -0.000  0.774
N of occupied +U levels =    9.289017
 --- exit write_ns ---
 --- enter write_ns ---
 LDA+U parameters:
U( 1)     =  4.00000000
alpha( 1) =  0.00000000
atom    2   Tr[ns(na)] =   4.64451
    eigenvalues:
  0.774  0.774  0.774
    eigenvectors:
  0.409  0.252  0.339
  0.443  0.000  0.556
  0.148  0.747  0.105
    occupations:
  0.774 -0.000  0.000
 -0.000  0.774 -0.000
  0.000 -0.000  0.774
atom    3   Tr[ns(na)] =   4.64451
    eigenvalues:
  0.774  0.774  0.774
    eigenvectors:
  0.149  0.354  0.497
  0.750  0.001  0.249
  0.102  0.645  0.253
    occupations:
  0.774 -0.000  0.000
 -0.000  0.774 -0.000
  0.000 -0.000  0.774
N of occupied +U levels =    9.289017
 --- exit write_ns ---
     ethr =  1.00E-02,  avg # of iterations =  3.0

[...]

     iteration #  2     ecut=    10.00 Ry     beta=0.70
     Davidson diagonalization with overlap
     ethr =  1.00E-02,  avg # of iterations =  3.0

[...]

     negative rho (up, down):  3.249E-01 0.000E+00
     ethr =  1.00E-02,  avg # of iterations =  3.0

     negative rho (up, down):  3.249E-01 0.000E+00

[...]

     negative rho (up, down):  5.523E-01 0.000E+00
     ethr =  1.99E-10,  avg # of iterations =  3.0

[...]

     iteration #  8     ecut=    10.00 Ry     beta=0.70
     Davidson diagonalization with overlap

[...]

     total energy              =    -387.99303820 Ry
     Harris-Foulkes estimate   =    -387.99304230 Ry
     estimated scf accuracy    <       0.00000007 Ry

     iteration #  8     ecut=    10.00 Ry     beta=0.70
     Davidson diagonalization with overlap
     ethr =  1.99E-10,  avg # of iterations =  3.0
     ethr =  1.99E-10,  avg # of iterations =  3.0

[...]

     End of self-consistent calculation
 --- enter write_ns ---
 LDA+U parameters:
U( 1)     =  4.00000000
alpha( 1) =  0.00000000
atom    2   Tr[ns(na)] =   4.52545
    eigenvalues:
  0.754  0.754  0.754
    eigenvectors:
  0.589  0.115  0.296
  0.376  0.020  0.604
  0.035  0.865  0.101
    occupations:
  0.754 -0.000  0.000
 -0.000  0.754 -0.000
  0.000 -0.000  0.754
atom    3   Tr[ns(na)] =   4.52545
    eigenvalues:
  0.754  0.754  0.754
    eigenvectors:
  0.377  0.227  0.396
  0.570  0.015  0.415
  0.053  0.758  0.188
    occupations:
  0.754 -0.000  0.000
 -0.000  0.754 -0.000
  0.000 -0.000  0.754
N of occupied +U levels =    9.050903
 --- exit write_ns ---

          k =-0.1667 0.1667 0.1667 (   150 PWs)   bands (ev):

   -83.5379 -34.5691 -34.5691 -32.9422 -20.5176 -20.5176 -17.8874 -17.8874
   -17.0757  -7.9133  -6.2231  11.3658  14.1454  14.1454  14.2925  14.6327
    14.6327

          k = 0.5000-0.5000 0.8333 (   141 PWs)   bands (ev):

[...]

     highest occupied level (ev):    17.8740

!    total energy              =    -387.99303860 Ry
     Harris-Foulkes estimate   =    -387.99303823 Ry
     estimated scf accuracy    <          2.2E-09 Ry

     The total energy is the sum of the following terms:

     one-electron contribution =     -92.07054258 Ry
     hartree contribution      =      60.39895027 Ry
     xc contribution           =     -58.26438209 Ry
     ewald contribution        =    -298.38403509 Ry
     Hubbard energy            =       0.32697089 Ry

     convergence has been achieved in   8 iterations

[...]

     End of self-consistent calculation
 --- enter write_ns ---
 LDA+U parameters:
U( 1)     =  4.00000000
alpha( 1) =  0.00000000
atom    2   Tr[ns(na)] =   4.52545
    eigenvalues:
  0.754  0.754  0.754
    eigenvectors:
  0.589  0.115  0.296
  0.376  0.020  0.604
  0.035  0.865  0.101
    occupations:
  0.754 -0.000  0.000
 -0.000  0.754 -0.000
  0.000 -0.000  0.754
atom    3   Tr[ns(na)] =   4.52545
    eigenvalues:
  0.754  0.754  0.754
    eigenvectors:
  0.377  0.227  0.396
  0.570  0.015  0.415
  0.053  0.758  0.188
    occupations:
  0.754 -0.000  0.000
 -0.000  0.754 -0.000
  0.000 -0.000  0.754
N of occupied +U levels =    9.050903
 --- exit write_ns ---

[...]

          k =-0.5000-0.8333-0.1667 (   142 PWs)   bands (ev):

[...]

          k = 0.5000-0.5000-0.5000 (   138 PWs)   bands (ev):

   -82.1053 -33.2867 -33.2867 -29.5523 -18.7283 -18.7283 -12.5436 -11.1285
   -11.1285  -6.5738  -4.8716   9.7660  14.0847  14.0847  14.1040  15.3446
    15.3446

     highest occupied level (ev):    17.8740

!    total energy              =    -387.99303860 Ry
     Harris-Foulkes estimate   =    -387.99303823 Ry
     estimated scf accuracy    <          2.2E-09 Ry

     The total energy is the sum of the following terms:

     one-electron contribution =     -92.07054258 Ry
     hartree contribution      =      60.39895027 Ry
     xc contribution           =     -58.26438209 Ry
     ewald contribution        =    -298.38403509 Ry
     Hubbard energy            =       0.32697089 Ry

     convergence has been achieved in   8 iterations

[...]

     Forces acting on atoms (cartesian axes, Ry/au):

     atom    1 type  2   force =     0.00000000    0.00000000    0.00000000
     atom    2 type  1   force =     0.00000000    0.00000000    0.00000000
     atom    3 type  1   force =    -0.00000000   -0.00000000    0.00000000

     Total force =     0.000000     Total SCF correction =     0.000000

     Computing stress (Cartesian axis) and pressure

[...]

     negative rho (up, down):  5.522E-01 0.000E+00

     Forces acting on atoms (cartesian axes, Ry/au):

     atom    1 type  2   force =     0.00000000    0.00000000    0.00000000
     atom    2 type  1   force =     0.00000000    0.00000000    0.00000000
     atom    3 type  1   force =    -0.00000000   -0.00000000    0.00000000

     Total force =     0.000000     Total SCF correction =     0.000000

     Computing stress (Cartesian axis) and pressure

     negative rho (up, down):  5.522E-01 0.000E+00
          total   stress  (Ry/bohr**3)                   (kbar)     P=********
  -0.21086026   0.00000000   0.00000000     -31018.61      0.00      0.00
   0.00000000  -0.21086026  -0.00000000          0.00 -31018.61     -0.00
   0.00000000  -0.00000000  -0.21086026          0.00     -0.00 -31018.61

     Writing output data file cerium.save

     General routines

     Hubbard U routines

   This run was terminated on:  21:15:24  14May2018

   JOB DONE.
          total   stress  (Ry/bohr**3)                   (kbar)     P=********
  -0.21086026   0.00000000   0.00000000     -31018.61      0.00      0.00
   0.00000000  -0.21086026  -0.00000000          0.00 -31018.61     -0.00
   0.00000000  -0.00000000  -0.21086026          0.00     -0.00 -31018.61

[...]

   JOB DONE.
          total   stress  (Ry/bohr**3)                   (kbar)     P=********
  -0.21086026   0.00000000   0.00000000     -31018.61      0.00      0.00
   0.00000000  -0.21086026  -0.00000000          0.00 -31018.61     -0.00
   0.00000000  -0.00000000  -0.21086026          0.00     -0.00 -31018.61

     Writing output data file cerium.save
          total   stress  (Ry/bohr**3)                   (kbar)     P=********
  -0.21086026   0.00000000   0.00000000     -31018.61      0.00      0.00
   0.00000000  -0.21086026  -0.00000000          0.00 -31018.61     -0.00
   0.00000000  -0.00000000  -0.21086026          0.00     -0.00 -31018.61

     Writing output data file cerium.save

[...]

   JOB DONE.

     General routines

     Hubbard U routines

   This run was terminated on:  21:15:27  14May2018

   JOB DONE.