     Program PWSCF v.6.1 (svn rev. 13369) starts on 14May2018 at 22:57:33

     Reading input from ceo2.scf.david50.in
     Message from routine read_cards :
     DEPRECATED: no units specified in ATOMIC_POSITIONS card
     Message from routine read_cards :
     ATOMIC_POSITIONS: units set to alat

     Current dimensions of program PWSCF are:
     Max number of different atomic species (ntypx) = 10
     Max number of k-points (npk) =  40000
     Max angular momentum in pseudopotentials (lmaxx) =  3

[...]

     Current dimensions of program PWSCF are:
     Max number of different atomic species (ntypx) = 10
     Max number of k-points (npk) =  40000
     Max angular momentum in pseudopotentials (lmaxx) =  3

     Program PWSCF v.6.1 (svn rev. 13369) starts on 14May2018 at 22:57:33

     Reading input from ceo2.scf.david50.in
     Message from routine read_cards :
     DEPRECATED: no units specified in ATOMIC_POSITIONS card
     Message from routine read_cards :
     ATOMIC_POSITIONS: units set to alat

     Current dimensions of program PWSCF are:
     Max number of different atomic species (ntypx) = 10
     Max number of k-points (npk) =  40000
     Max angular momentum in pseudopotentials (lmaxx) =  3
               file O.pbe-nl-rrkjus_psl.1.0.0.UPF: wavefunction(s)  2S renormalized
               file O.pbe-nl-rrkjus_psl.1.0.0.UPF: wavefunction(s)  2S renormalized
               file O.pbe-nl-rrkjus_psl.1.0.0.UPF: wavefunction(s)  2S renormalized
               file O.pbe-nl-rrkjus_psl.1.0.0.UPF: wavefunction(s)  2S renormalized
               file Ce.pbe-spdfn-rrkjus_psl.1.0.0.UPF: wavefunction(s)  4F renormalized
               file Ce.pbe-spdfn-rrkjus_psl.1.0.0.UPF: wavefunction(s)  4F renormalized
               file Ce.pbe-spdfn-rrkjus_psl.1.0.0.UPF: wavefunction(s)  4F renormalized
               file Ce.pbe-spdfn-rrkjus_psl.1.0.0.UPF: wavefunction(s)  4F renormalized

     bravais-lattice index     =            2
     lattice parameter (alat)  =      10.2253  a.u.
     unit-cell volume          =     267.2811 (a.u.)^3
     number of atoms/cell      =            3
     number of atomic types    =            2
     number of electrons       =        34.00
     number of Kohn-Sham states=           17
     kinetic-energy cutoff     =      50.0000  Ry
     charge density cutoff     =     200.0000  Ry
     convergence threshold     =      1.0E-08
     mixing beta               =       0.7000
     number of iterations used =            8  plain     mixing
     Exchange-correlation      = PBE ( 1  4  3  4 0 0)

     celldm(1)=  10.225300  celldm(2)=   0.000000  celldm(3)=   0.000000
     celldm(4)=   0.000000  celldm(5)=   0.000000  celldm(6)=   0.000000

     crystal axes: (cart. coord. in units of alat)
               a(1) = (  -0.500000   0.000000   0.500000 )
               a(2) = (   0.000000   0.500000   0.500000 )
               a(3) = (  -0.500000   0.500000   0.000000 )

     reciprocal axes: (cart. coord. in units 2 pi/alat)
               b(1) = ( -1.000000 -1.000000  1.000000 )
               b(2) = (  1.000000  1.000000  1.000000 )
               b(3) = ( -1.000000  1.000000 -1.000000 )

     PseudoPot. # 1 for  O read from file:
     /home/dmitry/qe/qe-6.1/pseudo/O.pbe-nl-rrkjus_psl.1.0.0.UPF
     MD5 check sum: 41aa6daaf7b486e514118ed2fcffca44
     Pseudo is Ultrasoft + core correction, Zval =  6.0
     Generated using "atomic" code by A. Dal Corso  v.6.1 svn rev. 13369
     Using radial grid of 1095 points,  4 beta functions with:
                l(1) =   0
                l(2) =   0
                l(3) =   1
                l(4) =   1
     Q(r) pseudized with 0 coefficients

     PseudoPot. # 2 for Ce read from file:
     /home/dmitry/qe/qe-6.1/pseudo/Ce.pbe-spdfn-rrkjus_psl.1.0.0.UPF
     MD5 check sum: 584ada09c8d63c147a4eb0bd2f8e9a4c
     Pseudo is Ultrasoft + core correction, Zval = 22.0
     Generated using "atomic" code by A. Dal Corso  v.6.1 svn rev. 13369
     Using radial grid of 1255 points,  8 beta functions with:
                l(1) =   0
                l(2) =   0
                l(3) =   1
                l(4) =   1
                l(5) =   2
                l(6) =   2
                l(7) =   3
                l(8) =   3
     Q(r) pseudized with 0 coefficients

     atomic species   valence    mass     pseudopotential
        O              6.00    15.99900      O( 1.00)
        Ce            22.00   140.12000     Ce( 1.00)

     Simplified LDA+U calculation (l_max = 1) with parameters (eV):
     atomic species    L          U    alpha       J0     beta
        O              1     4.0000   0.0000   0.0000   0.0000

     48 Sym. Ops., with inversion, found

   Cartesian axes

     site n.     atom                  positions (alat units)
         1           Ce  tau(   1) = (   0.0000000   0.0000000   0.0000000  )
         2           O   tau(   2) = (   0.2500000   0.2500000   0.2500000  )
         3           O   tau(   3) = (   0.7500000   0.7500000   0.7500000  )

     number of k points=     6
                       cart. coord. in units 2pi/alat
        k(    1) = (  -0.1666667   0.1666667   0.1666667), wk =   0.1481481
        k(    2) = (   0.5000000  -0.5000000   0.8333333), wk =   0.4444444
        k(    3) = (   0.1666667  -0.1666667   0.5000000), wk =   0.4444444
        k(    4) = (  -0.1666667  -1.1666667   0.1666667), wk =   0.4444444
        k(    5) = (  -0.5000000  -0.8333333  -0.1666667), wk =   0.4444444
        k(    6) = (   0.5000000  -0.5000000  -0.5000000), wk =   0.0740741

[...]

     bravais-lattice index     =            2
     lattice parameter (alat)  =      10.2253  a.u.
     unit-cell volume          =     267.2811 (a.u.)^3
     number of atoms/cell      =            3
     number of atomic types    =            2
     number of electrons       =        34.00
     number of Kohn-Sham states=           17
     kinetic-energy cutoff     =      50.0000  Ry
     charge density cutoff     =     200.0000  Ry
     convergence threshold     =      1.0E-08
     mixing beta               =       0.7000
     number of iterations used =            8  plain     mixing
     Exchange-correlation      = PBE ( 1  4  3  4 0 0)

     celldm(1)=  10.225300  celldm(2)=   0.000000  celldm(3)=   0.000000
     celldm(4)=   0.000000  celldm(5)=   0.000000  celldm(6)=   0.000000

     crystal axes: (cart. coord. in units of alat)
               a(1) = (  -0.500000   0.000000   0.500000 )
               a(2) = (   0.000000   0.500000   0.500000 )
               a(3) = (  -0.500000   0.500000   0.000000 )

     reciprocal axes: (cart. coord. in units 2 pi/alat)
               b(1) = ( -1.000000 -1.000000  1.000000 )
               b(2) = (  1.000000  1.000000  1.000000 )
               b(3) = ( -1.000000  1.000000 -1.000000 )

     PseudoPot. # 1 for  O read from file:
     /home/dmitry/qe/qe-6.1/pseudo/O.pbe-nl-rrkjus_psl.1.0.0.UPF
     MD5 check sum: 41aa6daaf7b486e514118ed2fcffca44
     Pseudo is Ultrasoft + core correction, Zval =  6.0
     Generated using "atomic" code by A. Dal Corso  v.6.1 svn rev. 13369
     Using radial grid of 1095 points,  4 beta functions with:
                l(1) =   0
                l(2) =   0
                l(3) =   1
                l(4) =   1
     Q(r) pseudized with 0 coefficients

     PseudoPot. # 2 for Ce read from file:
     /home/dmitry/qe/qe-6.1/pseudo/Ce.pbe-spdfn-rrkjus_psl.1.0.0.UPF
     MD5 check sum: 584ada09c8d63c147a4eb0bd2f8e9a4c
     Pseudo is Ultrasoft + core correction, Zval = 22.0
     Generated using "atomic" code by A. Dal Corso  v.6.1 svn rev. 13369
     Using radial grid of 1255 points,  8 beta functions with:
                l(1) =   0
                l(2) =   0
                l(3) =   1
                l(4) =   1
                l(5) =   2
                l(6) =   2
                l(7) =   3
                l(8) =   3
     Q(r) pseudized with 0 coefficients

     atomic species   valence    mass     pseudopotential
        O              6.00    15.99900      O( 1.00)
        Ce            22.00   140.12000     Ce( 1.00)

     Simplified LDA+U calculation (l_max = 1) with parameters (eV):
     atomic species    L          U    alpha       J0     beta
        O              1     4.0000   0.0000   0.0000   0.0000

     48 Sym. Ops., with inversion, found

   Cartesian axes

     site n.     atom                  positions (alat units)
         1           Ce  tau(   1) = (   0.0000000   0.0000000   0.0000000  )
         2           O   tau(   2) = (   0.2500000   0.2500000   0.2500000  )
         3           O   tau(   3) = (   0.7500000   0.7500000   0.7500000  )

     number of k points=     6
                       cart. coord. in units 2pi/alat
        k(    1) = (  -0.1666667   0.1666667   0.1666667), wk =   0.1481481
        k(    2) = (   0.5000000  -0.5000000   0.8333333), wk =   0.4444444
        k(    3) = (   0.1666667  -0.1666667   0.5000000), wk =   0.4444444
        k(    4) = (  -0.1666667  -1.1666667   0.1666667), wk =   0.4444444
        k(    5) = (  -0.5000000  -0.8333333  -0.1666667), wk =   0.4444444
        k(    6) = (   0.5000000  -0.5000000  -0.5000000), wk =   0.0740741

     Check: negative/imaginary core charge=   -0.000025    0.000000

     Initial potential from superposition of free atoms

     starting charge   33.99439, renormalised to   34.00000

[...]

     starting charge   33.99439, renormalised to   34.00000
     Number of +U iterations with fixed ns =  0
     Starting occupations:
 --- enter write_ns ---
 LDA+U parameters:
U( 1)     =  4.00000000
alpha( 1) =  0.00000000
atom    2   Tr[ns(na)] =   4.00000
    eigenvalues:
  0.667  0.667  0.667
    eigenvectors:
  1.000  0.000  0.000
  0.000  1.000  0.000
  0.000  0.000  1.000
    occupations:
  0.667  0.000  0.000
  0.000  0.667  0.000
  0.000  0.000  0.667
atom    3   Tr[ns(na)] =   4.00000
    eigenvalues:
  0.667  0.667  0.667
    eigenvectors:
  1.000  0.000  0.000
  0.000  1.000  0.000
  0.000  0.000  1.000
    occupations:
  0.667  0.000  0.000
  0.000  0.667  0.000
  0.000  0.000  0.667
N of occupied +U levels =    8.000000
 --- exit write_ns ---
     Number of +U iterations with fixed ns =  0
     Starting occupations:
 --- enter write_ns ---
 LDA+U parameters:
U( 1)     =  4.00000000
alpha( 1) =  0.00000000
atom    2   Tr[ns(na)] =   4.00000
    eigenvalues:
  0.667  0.667  0.667
    eigenvectors:
  1.000  0.000  0.000
  0.000  1.000  0.000
  0.000  0.000  1.000
    occupations:
  0.667  0.000  0.000
  0.000  0.667  0.000
  0.000  0.000  0.667
atom    3   Tr[ns(na)] =   4.00000
    eigenvalues:
  0.667  0.667  0.667
    eigenvectors:
  1.000  0.000  0.000
  0.000  1.000  0.000
  0.000  0.000  1.000
    occupations:
  0.667  0.000  0.000
  0.000  0.667  0.000
  0.000  0.000  0.667
N of occupied +U levels =    8.000000
 --- exit write_ns ---

[...]

     starting charge   33.99439, renormalised to   34.00000
     Number of +U iterations with fixed ns =  0
     Starting occupations:
 --- enter write_ns ---
 LDA+U parameters:
U( 1)     =  4.00000000
alpha( 1) =  0.00000000
atom    2   Tr[ns(na)] =   4.00000
    eigenvalues:
  0.667  0.667  0.667
    eigenvectors:
  1.000  0.000  0.000
  0.000  1.000  0.000
  0.000  0.000  1.000
    occupations:
  0.667  0.000  0.000
  0.000  0.667  0.000
  0.000  0.000  0.667
atom    3   Tr[ns(na)] =   4.00000
    eigenvalues:
  0.667  0.667  0.667
    eigenvectors:
  1.000  0.000  0.000
  0.000  1.000  0.000
  0.000  0.000  1.000
    occupations:
  0.667  0.000  0.000
  0.000  0.667  0.000
  0.000  0.000  0.667
N of occupied +U levels =    8.000000
 --- exit write_ns ---

     Check: negative/imaginary core charge=   -0.000025    0.000000

     Initial potential from superposition of free atoms

     starting charge   33.99439, renormalised to   34.00000
     Number of +U iterations with fixed ns =  0
     Starting occupations:
 --- enter write_ns ---
 LDA+U parameters:
U( 1)     =  4.00000000
alpha( 1) =  0.00000000
atom    2   Tr[ns(na)] =   4.00000
    eigenvalues:
  0.667  0.667  0.667
    eigenvectors:
  1.000  0.000  0.000
  0.000  1.000  0.000
  0.000  0.000  1.000
    occupations:
  0.667  0.000  0.000
  0.000  0.667  0.000
  0.000  0.000  0.667
atom    3   Tr[ns(na)] =   4.00000
    eigenvalues:
  0.667  0.667  0.667
    eigenvectors:
  1.000  0.000  0.000
  0.000  1.000  0.000
  0.000  0.000  1.000
    occupations:
  0.667  0.000  0.000
  0.000  0.667  0.000
  0.000  0.000  0.667
N of occupied +U levels =    8.000000
 --- exit write_ns ---
 Atomic wfc used for LDA+U Projector are NOT orthogonalized
 Atomic wfc used for LDA+U Projector are NOT orthogonalized
 Atomic wfc used for LDA+U Projector are NOT orthogonalized
 Atomic wfc used for LDA+U Projector are NOT orthogonalized
     Starting wfc are   30 randomized atomic wfcs
     Starting wfc are   30 randomized atomic wfcs
     Starting wfc are   30 randomized atomic wfcs
     Starting wfc are   30 randomized atomic wfcs

     Self-consistent Calculation

     iteration #  1     ecut=    50.00 Ry     beta=0.70
     Davidson diagonalization with overlap

[...]

     Self-consistent Calculation

     iteration #  1     ecut=    50.00 Ry     beta=0.70
     Davidson diagonalization with overlap
     ethr =  1.00E-02,  avg # of iterations =  2.7
     ethr =  1.00E-02,  avg # of iterations =  2.7
     ethr =  1.00E-02,  avg # of iterations =  2.7
     ethr =  1.00E-02,  avg # of iterations =  2.7
 --- enter write_ns ---
 LDA+U parameters:
U( 1)     =  4.00000000
alpha( 1) =  0.00000000
atom    2   Tr[ns(na)] =   5.88851
    eigenvalues:
  0.981  0.981  0.981
    eigenvectors:
  0.403  0.204  0.393
  0.525  0.004  0.471
  0.072  0.792  0.136
    occupations:
  0.981 -0.000  0.000
 -0.000  0.981 -0.000
  0.000 -0.000  0.981
atom    3   Tr[ns(na)] =   5.88851
    eigenvalues:
  0.981  0.981  0.981
    eigenvectors:
  0.443  0.178  0.379
  0.506  0.011  0.483
  0.052  0.811  0.137
    occupations:
  0.981 -0.000  0.000
 -0.000  0.981 -0.000
  0.000 -0.000  0.981
N of occupied +U levels =   11.777030
 --- exit write_ns ---
 --- enter write_ns ---
 LDA+U parameters:
U( 1)     =  4.00000000
alpha( 1) =  0.00000000
atom    2   Tr[ns(na)] =   5.88851
    eigenvalues:
  0.981  0.981  0.981
    eigenvectors:
  0.403  0.204  0.393
  0.525  0.004  0.471
  0.072  0.792  0.136
    occupations:
  0.981 -0.000  0.000
 -0.000  0.981 -0.000
  0.000 -0.000  0.981
atom    3   Tr[ns(na)] =   5.88851
    eigenvalues:
  0.981  0.981  0.981
    eigenvectors:
  0.443  0.178  0.379
  0.506  0.011  0.483
  0.052  0.811  0.137
    occupations:
  0.981 -0.000  0.000
 -0.000  0.981 -0.000
  0.000 -0.000  0.981
N of occupied +U levels =   11.777030
 --- exit write_ns ---
 --- enter write_ns ---
 LDA+U parameters:
U( 1)     =  4.00000000
alpha( 1) =  0.00000000
atom    2   Tr[ns(na)] =   5.88851
    eigenvalues:
  0.981  0.981  0.981
    eigenvectors:
  0.403  0.204  0.393
  0.525  0.004  0.471
  0.072  0.792  0.136
    occupations:
  0.981 -0.000  0.000
 -0.000  0.981 -0.000
  0.000 -0.000  0.981
atom    3   Tr[ns(na)] =   5.88851
    eigenvalues:
  0.981  0.981  0.981
    eigenvectors:
  0.443  0.178  0.379
  0.506  0.011  0.483
  0.052  0.811  0.137
    occupations:
  0.981 -0.000  0.000
 -0.000  0.981 -0.000
  0.000 -0.000  0.981
N of occupied +U levels =   11.777030
 --- exit write_ns ---
 --- enter write_ns ---
 LDA+U parameters:
U( 1)     =  4.00000000
alpha( 1) =  0.00000000
atom    2   Tr[ns(na)] =   5.88851
    eigenvalues:
  0.981  0.981  0.981
    eigenvectors:
  0.403  0.204  0.393
  0.525  0.004  0.471
  0.072  0.792  0.136
    occupations:
  0.981 -0.000  0.000
 -0.000  0.981 -0.000
  0.000 -0.000  0.981
atom    3   Tr[ns(na)] =   5.88851
    eigenvalues:
  0.981  0.981  0.981
    eigenvectors:
  0.443  0.178  0.379
  0.506  0.011  0.483
  0.052  0.811  0.137
    occupations:
  0.981 -0.000  0.000
 -0.000  0.981 -0.000
  0.000 -0.000  0.981
N of occupied +U levels =   11.777030
 --- exit write_ns ---

     total energy              =    -493.53781924 Ry
     Harris-Foulkes estimate   =    -496.06663966 Ry
     estimated scf accuracy    <       3.42600489 Ry

[...]

     iteration #  2     ecut=    50.00 Ry     beta=0.70
     Davidson diagonalization with overlap
     ethr =  1.00E-02,  avg # of iterations =  6.8
     ethr =  1.00E-02,  avg # of iterations =  6.8
     ethr =  1.00E-02,  avg # of iterations =  6.8
     ethr =  1.00E-02,  avg # of iterations =  6.8

[...]

     iteration # 34     ecut=    50.00 Ry     beta=0.70
     Davidson diagonalization with overlap

     total energy              =    -494.95102172 Ry
     Harris-Foulkes estimate   =    -494.95102175 Ry
     estimated scf accuracy    <       0.00000010 Ry

     iteration # 34     ecut=    50.00 Ry     beta=0.70
     Davidson diagonalization with overlap
     ethr =  3.03E-10,  avg # of iterations =  4.8
     ethr =  3.03E-10,  avg # of iterations =  4.8
     ethr =  3.03E-10,  avg # of iterations =  4.8
     ethr =  3.03E-10,  avg # of iterations =  4.8

     End of self-consistent calculation
 --- enter write_ns ---
 LDA+U parameters:
U( 1)     =  4.00000000
alpha( 1) =  0.00000000
atom    2   Tr[ns(na)] =   5.50061
    eigenvalues:
  0.917  0.917  0.917
    eigenvectors:
  0.476  0.199  0.325
  0.448  0.009  0.543
  0.076  0.793  0.131
    occupations:
  0.917 -0.000  0.000
 -0.000  0.917 -0.000
  0.000 -0.000  0.917
atom    3   Tr[ns(na)] =   5.50061
    eigenvalues:
  0.917  0.917  0.917
    eigenvectors:
  0.069  0.627  0.304
  0.193  0.169  0.639
  0.738  0.204  0.057
    occupations:
  0.917 -0.000  0.000
 -0.000  0.917 -0.000
  0.000 -0.000  0.917
N of occupied +U levels =   11.001217
 --- exit write_ns ---

          k =-0.1667 0.1667 0.1667 (  1576 PWs)   bands (ev):

   -90.2922 -90.2922 -90.2552 -90.0806 -90.0806 -22.2565  -5.1659  -3.8677
    -3.8677  -2.8930  -2.2023   7.8380   7.8380   8.2041  10.4587  10.6929
    10.6929

          k = 0.5000-0.5000 0.8333 (  1586 PWs)   bands (ev):

[...]

     highest occupied level (ev):    11.2075

!    total energy              =    -494.95102175 Ry
     Harris-Foulkes estimate   =    -494.95102175 Ry
     estimated scf accuracy    <          6.0E-10 Ry

     The total energy is the sum of the following terms:

     one-electron contribution =    -259.79440079 Ry
     hartree contribution      =     131.48655524 Ry
     xc contribution           =     -68.39373953 Ry
     ewald contribution        =    -298.38403505 Ry
     Hubbard energy            =       0.13459838 Ry

     convergence has been achieved in  34 iterations

[...]

     End of self-consistent calculation
 --- enter write_ns ---
 LDA+U parameters:
U( 1)     =  4.00000000
alpha( 1) =  0.00000000
atom    2   Tr[ns(na)] =   5.50061
    eigenvalues:
  0.917  0.917  0.917
    eigenvectors:
  0.476  0.199  0.325
  0.448  0.009  0.543
  0.076  0.793  0.131
    occupations:
  0.917 -0.000  0.000
 -0.000  0.917 -0.000
  0.000 -0.000  0.917
atom    3   Tr[ns(na)] =   5.50061
    eigenvalues:
  0.917  0.917  0.917
    eigenvectors:
  0.069  0.627  0.304
  0.193  0.169  0.639
  0.738  0.204  0.057
    occupations:
  0.917 -0.000  0.000
 -0.000  0.917 -0.000
  0.000 -0.000  0.917
N of occupied +U levels =   11.001217
 --- exit write_ns ---

[...]

          k =-0.5000-0.8333-0.1667 (  1596 PWs)   bands (ev):

[...]

          k = 0.5000-0.5000-0.5000 (  1568 PWs)   bands (ev):

   -90.3933 -90.3933 -89.9719 -89.9498 -89.9498 -22.2441  -6.6936  -4.0824
    -4.0824  -3.4441  -0.4455   8.5831   8.5831   9.7554   9.8215  10.4156
    10.4156

     highest occupied level (ev):    11.2075

!    total energy              =    -494.95102175 Ry
     Harris-Foulkes estimate   =    -494.95102175 Ry
     estimated scf accuracy    <          6.0E-10 Ry

     The total energy is the sum of the following terms:

     one-electron contribution =    -259.79440079 Ry
     hartree contribution      =     131.48655524 Ry
     xc contribution           =     -68.39373953 Ry
     ewald contribution        =    -298.38403505 Ry
     Hubbard energy            =       0.13459838 Ry

     convergence has been achieved in  34 iterations

     Forces acting on atoms (cartesian axes, Ry/au):

     atom    1 type  2   force =     0.00000000    0.00000000    0.00000000
     atom    2 type  1   force =     0.00000000   -0.00000000    0.00000000
     atom    3 type  1   force =    -0.00000000    0.00000000   -0.00000000

     Total force =     0.000000     Total SCF correction =     0.000000

     Computing stress (Cartesian axis) and pressure

[...]

     Forces acting on atoms (cartesian axes, Ry/au):

     atom    1 type  2   force =     0.00000000    0.00000000    0.00000000
     atom    2 type  1   force =     0.00000000   -0.00000000    0.00000000
     atom    3 type  1   force =    -0.00000000    0.00000000   -0.00000000

     Total force =     0.000000     Total SCF correction =     0.000000

     Computing stress (Cartesian axis) and pressure

          total   stress  (Ry/bohr**3)                   (kbar)     P=-7636.52
  -0.05191202  -0.00000000  -0.00000000      -7636.52     -0.00     -0.00
  -0.00000000  -0.05191202   0.00000000         -0.00  -7636.52      0.00
  -0.00000000  -0.00000000  -0.05191202         -0.00     -0.00  -7636.52

     Writing output data file cerium.save
          total   stress  (Ry/bohr**3)                   (kbar)     P=-7636.52
  -0.05191202  -0.00000000  -0.00000000      -7636.52     -0.00     -0.00
  -0.00000000  -0.05191202   0.00000000         -0.00  -7636.52      0.00
  -0.00000000  -0.00000000  -0.05191202         -0.00     -0.00  -7636.52

     Writing output data file cerium.save

     General routines

     Hubbard U routines

   This run was terminated on:   1:11: 1  15May2018

   JOB DONE.

[...]

   JOB DONE.
          total   stress  (Ry/bohr**3)                   (kbar)     P=-7636.52
  -0.05191202  -0.00000000  -0.00000000      -7636.52     -0.00     -0.00
  -0.00000000  -0.05191202   0.00000000         -0.00  -7636.52      0.00
  -0.00000000  -0.00000000  -0.05191202         -0.00     -0.00  -7636.52

[...]

   JOB DONE.
          total   stress  (Ry/bohr**3)                   (kbar)     P=-7636.52
  -0.05191202  -0.00000000  -0.00000000      -7636.52     -0.00     -0.00
  -0.00000000  -0.05191202   0.00000000         -0.00  -7636.52      0.00
  -0.00000000  -0.00000000  -0.05191202         -0.00     -0.00  -7636.52

     Writing output data file cerium.save

     General routines

     Hubbard U routines

   This run was terminated on:   1:11: 7  15May2018

   JOB DONE.