     Program PWSCF v.6.1 (svn rev. 13369) starts on 14May2018 at 21:19:28

     Reading input from ceo2.scf.david20.in
     Message from routine read_cards :
     DEPRECATED: no units specified in ATOMIC_POSITIONS card
     Message from routine read_cards :
     ATOMIC_POSITIONS: units set to alat

     Current dimensions of program PWSCF are:
     Max number of different atomic species (ntypx) = 10
     Max number of k-points (npk) =  40000
     Max angular momentum in pseudopotentials (lmaxx) =  3

[...]

     Current dimensions of program PWSCF are:
     Max number of different atomic species (ntypx) = 10
     Max number of k-points (npk) =  40000
     Max angular momentum in pseudopotentials (lmaxx) =  3

     Program PWSCF v.6.1 (svn rev. 13369) starts on 14May2018 at 21:19:28

[...]

     Current dimensions of program PWSCF are:
     Max number of different atomic species (ntypx) = 10
     Max number of k-points (npk) =  40000
     Max angular momentum in pseudopotentials (lmaxx) =  3
     Program PWSCF v.6.1 (svn rev. 13369) starts on 14May2018 at 21:19:28

     Reading input from ceo2.scf.david20.in
     Message from routine read_cards :
     DEPRECATED: no units specified in ATOMIC_POSITIONS card
     Message from routine read_cards :
     ATOMIC_POSITIONS: units set to alat

     Current dimensions of program PWSCF are:
     Max number of different atomic species (ntypx) = 10
     Max number of k-points (npk) =  40000
     Max angular momentum in pseudopotentials (lmaxx) =  3
               file O.pbe-nl-rrkjus_psl.1.0.0.UPF: wavefunction(s)  2S renormalized
               file O.pbe-nl-rrkjus_psl.1.0.0.UPF: wavefunction(s)  2S renormalized
               file O.pbe-nl-rrkjus_psl.1.0.0.UPF: wavefunction(s)  2S renormalized
               file O.pbe-nl-rrkjus_psl.1.0.0.UPF: wavefunction(s)  2S renormalized
               file Ce.pbe-spdfn-rrkjus_psl.1.0.0.UPF: wavefunction(s)  4F renormalized
               file Ce.pbe-spdfn-rrkjus_psl.1.0.0.UPF: wavefunction(s)  4F renormalized
               file Ce.pbe-spdfn-rrkjus_psl.1.0.0.UPF: wavefunction(s)  4F renormalized
               file Ce.pbe-spdfn-rrkjus_psl.1.0.0.UPF: wavefunction(s)  4F renormalized

     bravais-lattice index     =            2
     lattice parameter (alat)  =      10.2253  a.u.
     unit-cell volume          =     267.2811 (a.u.)^3
     number of atoms/cell      =            3
     number of atomic types    =            2
     number of electrons       =        34.00
     number of Kohn-Sham states=           17
     kinetic-energy cutoff     =      20.0000  Ry
     charge density cutoff     =      80.0000  Ry
     convergence threshold     =      1.0E-08
     mixing beta               =       0.7000
     number of iterations used =            8  plain     mixing
     Exchange-correlation      = PBE ( 1  4  3  4 0 0)

     celldm(1)=  10.225300  celldm(2)=   0.000000  celldm(3)=   0.000000
     celldm(4)=   0.000000  celldm(5)=   0.000000  celldm(6)=   0.000000

     crystal axes: (cart. coord. in units of alat)
               a(1) = (  -0.500000   0.000000   0.500000 )
               a(2) = (   0.000000   0.500000   0.500000 )
               a(3) = (  -0.500000   0.500000   0.000000 )

     reciprocal axes: (cart. coord. in units 2 pi/alat)
               b(1) = ( -1.000000 -1.000000  1.000000 )
               b(2) = (  1.000000  1.000000  1.000000 )
               b(3) = ( -1.000000  1.000000 -1.000000 )

     PseudoPot. # 1 for  O read from file:
     /home/dmitry/qe/qe-6.1/pseudo/O.pbe-nl-rrkjus_psl.1.0.0.UPF
     MD5 check sum: 41aa6daaf7b486e514118ed2fcffca44
     Pseudo is Ultrasoft + core correction, Zval =  6.0
     Generated using "atomic" code by A. Dal Corso  v.6.1 svn rev. 13369
     Using radial grid of 1095 points,  4 beta functions with:
                l(1) =   0
                l(2) =   0
                l(3) =   1
                l(4) =   1
     Q(r) pseudized with 0 coefficients

     PseudoPot. # 2 for Ce read from file:
     /home/dmitry/qe/qe-6.1/pseudo/Ce.pbe-spdfn-rrkjus_psl.1.0.0.UPF
     MD5 check sum: 584ada09c8d63c147a4eb0bd2f8e9a4c
     Pseudo is Ultrasoft + core correction, Zval = 22.0
     Generated using "atomic" code by A. Dal Corso  v.6.1 svn rev. 13369
     Using radial grid of 1255 points,  8 beta functions with:
                l(1) =   0
                l(2) =   0
                l(3) =   1
                l(4) =   1
                l(5) =   2
                l(6) =   2
                l(7) =   3
                l(8) =   3
     Q(r) pseudized with 0 coefficients

     atomic species   valence    mass     pseudopotential
        O              6.00    15.99900      O( 1.00)
        Ce            22.00   140.12000     Ce( 1.00)

     Simplified LDA+U calculation (l_max = 1) with parameters (eV):
     atomic species    L          U    alpha       J0     beta
        O              1     4.0000   0.0000   0.0000   0.0000

     48 Sym. Ops., with inversion, found

   Cartesian axes

     site n.     atom                  positions (alat units)
         1           Ce  tau(   1) = (   0.0000000   0.0000000   0.0000000  )
         2           O   tau(   2) = (   0.2500000   0.2500000   0.2500000  )
         3           O   tau(   3) = (   0.7500000   0.7500000   0.7500000  )

     number of k points=     6
                       cart. coord. in units 2pi/alat
        k(    1) = (  -0.1666667   0.1666667   0.1666667), wk =   0.1481481
        k(    2) = (   0.5000000  -0.5000000   0.8333333), wk =   0.4444444
        k(    3) = (   0.1666667  -0.1666667   0.5000000), wk =   0.4444444
        k(    4) = (  -0.1666667  -1.1666667   0.1666667), wk =   0.4444444
        k(    5) = (  -0.5000000  -0.8333333  -0.1666667), wk =   0.4444444
        k(    6) = (   0.5000000  -0.5000000  -0.5000000), wk =   0.0740741

[...]

     bravais-lattice index     =            2
     lattice parameter (alat)  =      10.2253  a.u.
     unit-cell volume          =     267.2811 (a.u.)^3
     number of atoms/cell      =            3
     number of atomic types    =            2
     number of electrons       =        34.00
     number of Kohn-Sham states=           17
     kinetic-energy cutoff     =      20.0000  Ry
     charge density cutoff     =      80.0000  Ry
     convergence threshold     =      1.0E-08
     mixing beta               =       0.7000
     number of iterations used =            8  plain     mixing
     Exchange-correlation      = PBE ( 1  4  3  4 0 0)

     celldm(1)=  10.225300  celldm(2)=   0.000000  celldm(3)=   0.000000
     celldm(4)=   0.000000  celldm(5)=   0.000000  celldm(6)=   0.000000

     crystal axes: (cart. coord. in units of alat)
               a(1) = (  -0.500000   0.000000   0.500000 )
               a(2) = (   0.000000   0.500000   0.500000 )
               a(3) = (  -0.500000   0.500000   0.000000 )

     reciprocal axes: (cart. coord. in units 2 pi/alat)
               b(1) = ( -1.000000 -1.000000  1.000000 )
               b(2) = (  1.000000  1.000000  1.000000 )
               b(3) = ( -1.000000  1.000000 -1.000000 )

     PseudoPot. # 1 for  O read from file:
     /home/dmitry/qe/qe-6.1/pseudo/O.pbe-nl-rrkjus_psl.1.0.0.UPF
     MD5 check sum: 41aa6daaf7b486e514118ed2fcffca44
     Pseudo is Ultrasoft + core correction, Zval =  6.0
     Generated using "atomic" code by A. Dal Corso  v.6.1 svn rev. 13369
     Using radial grid of 1095 points,  4 beta functions with:
                l(1) =   0
                l(2) =   0
                l(3) =   1
                l(4) =   1
     Q(r) pseudized with 0 coefficients

     PseudoPot. # 2 for Ce read from file:
     /home/dmitry/qe/qe-6.1/pseudo/Ce.pbe-spdfn-rrkjus_psl.1.0.0.UPF
     MD5 check sum: 584ada09c8d63c147a4eb0bd2f8e9a4c
     Pseudo is Ultrasoft + core correction, Zval = 22.0
     Generated using "atomic" code by A. Dal Corso  v.6.1 svn rev. 13369
     Using radial grid of 1255 points,  8 beta functions with:
                l(1) =   0
                l(2) =   0
                l(3) =   1
                l(4) =   1
                l(5) =   2
                l(6) =   2
                l(7) =   3
                l(8) =   3
     Q(r) pseudized with 0 coefficients

     atomic species   valence    mass     pseudopotential
        O              6.00    15.99900      O( 1.00)
        Ce            22.00   140.12000     Ce( 1.00)

     Simplified LDA+U calculation (l_max = 1) with parameters (eV):
     atomic species    L          U    alpha       J0     beta
        O              1     4.0000   0.0000   0.0000   0.0000

     48 Sym. Ops., with inversion, found

   Cartesian axes

     site n.     atom                  positions (alat units)
         1           Ce  tau(   1) = (   0.0000000   0.0000000   0.0000000  )
         2           O   tau(   2) = (   0.2500000   0.2500000   0.2500000  )
         3           O   tau(   3) = (   0.7500000   0.7500000   0.7500000  )

     number of k points=     6
                       cart. coord. in units 2pi/alat
        k(    1) = (  -0.1666667   0.1666667   0.1666667), wk =   0.1481481
        k(    2) = (   0.5000000  -0.5000000   0.8333333), wk =   0.4444444
        k(    3) = (   0.1666667  -0.1666667   0.5000000), wk =   0.4444444
        k(    4) = (  -0.1666667  -1.1666667   0.1666667), wk =   0.4444444
        k(    5) = (  -0.5000000  -0.8333333  -0.1666667), wk =   0.4444444
        k(    6) = (   0.5000000  -0.5000000  -0.5000000), wk =   0.0740741

     Check: negative/imaginary core charge=   -0.000794    0.000000

     Initial potential from superposition of free atoms

     starting charge   33.99439, renormalised to   34.00000
     Number of +U iterations with fixed ns =  0
     Starting occupations:
 --- enter write_ns ---
 LDA+U parameters:
U( 1)     =  4.00000000
alpha( 1) =  0.00000000
atom    2   Tr[ns(na)] =   4.00000
    eigenvalues:
  0.667  0.667  0.667
    eigenvectors:
  1.000  0.000  0.000
  0.000  1.000  0.000
  0.000  0.000  1.000
    occupations:
  0.667  0.000  0.000
  0.000  0.667  0.000
  0.000  0.000  0.667
atom    3   Tr[ns(na)] =   4.00000
    eigenvalues:
  0.667  0.667  0.667
    eigenvectors:
  1.000  0.000  0.000
  0.000  1.000  0.000
  0.000  0.000  1.000
    occupations:
  0.667  0.000  0.000
  0.000  0.667  0.000
  0.000  0.000  0.667
N of occupied +U levels =    8.000000
 --- exit write_ns ---

[...]

     starting charge   33.99439, renormalised to   34.00000
     Number of +U iterations with fixed ns =  0
     Starting occupations:
 --- enter write_ns ---
 LDA+U parameters:
U( 1)     =  4.00000000
alpha( 1) =  0.00000000
atom    2   Tr[ns(na)] =   4.00000
    eigenvalues:
  0.667  0.667  0.667
    eigenvectors:
  1.000  0.000  0.000
  0.000  1.000  0.000
  0.000  0.000  1.000
    occupations:
  0.667  0.000  0.000
  0.000  0.667  0.000
  0.000  0.000  0.667
atom    3   Tr[ns(na)] =   4.00000
    eigenvalues:
  0.667  0.667  0.667
    eigenvectors:
  1.000  0.000  0.000
  0.000  1.000  0.000
  0.000  0.000  1.000
    occupations:
  0.667  0.000  0.000
  0.000  0.667  0.000
  0.000  0.000  0.667
N of occupied +U levels =    8.000000
 --- exit write_ns ---

     Check: negative/imaginary core charge=   -0.000794    0.000000

     Initial potential from superposition of free atoms

     starting charge   33.99439, renormalised to   34.00000
     Number of +U iterations with fixed ns =  0
     Starting occupations:
 --- enter write_ns ---
 LDA+U parameters:
U( 1)     =  4.00000000
alpha( 1) =  0.00000000
atom    2   Tr[ns(na)] =   4.00000
    eigenvalues:
  0.667  0.667  0.667
    eigenvectors:
  1.000  0.000  0.000
  0.000  1.000  0.000
  0.000  0.000  1.000
    occupations:
  0.667  0.000  0.000
  0.000  0.667  0.000
  0.000  0.000  0.667
atom    3   Tr[ns(na)] =   4.00000
    eigenvalues:
  0.667  0.667  0.667
    eigenvectors:
  1.000  0.000  0.000
  0.000  1.000  0.000
  0.000  0.000  1.000
    occupations:
  0.667  0.000  0.000
  0.000  0.667  0.000
  0.000  0.000  0.667
N of occupied +U levels =    8.000000
 --- exit write_ns ---
 Atomic wfc used for LDA+U Projector are NOT orthogonalized
     Starting wfc are   30 randomized atomic wfcs
 Atomic wfc used for LDA+U Projector are NOT orthogonalized

     Self-consistent Calculation

     iteration #  1     ecut=    20.00 Ry     beta=0.70
     Davidson diagonalization with overlap
     Starting wfc are   30 randomized atomic wfcs
 Atomic wfc used for LDA+U Projector are NOT orthogonalized
     Starting wfc are   30 randomized atomic wfcs
 Atomic wfc used for LDA+U Projector are NOT orthogonalized

[...]

     iteration #  1     ecut=    20.00 Ry     beta=0.70
     Davidson diagonalization with overlap
     ethr =  1.00E-02,  avg # of iterations =  2.0
     Starting wfc are   30 randomized atomic wfcs

[...]

     iteration #  1     ecut=    20.00 Ry     beta=0.70
     Davidson diagonalization with overlap

     Self-consistent Calculation

     iteration #  1     ecut=    20.00 Ry     beta=0.70
     Davidson diagonalization with overlap
     ethr =  1.00E-02,  avg # of iterations =  2.0
     ethr =  1.00E-02,  avg # of iterations =  2.0
     ethr =  1.00E-02,  avg # of iterations =  2.0
 --- enter write_ns ---
 LDA+U parameters:
U( 1)     =  4.00000000
alpha( 1) =  0.00000000
atom    2   Tr[ns(na)] =   5.62869
    eigenvalues:
  0.938  0.938  0.938
    eigenvectors:
  0.473  0.166  0.360
  0.482  0.017  0.502
  0.045  0.817  0.138
    occupations:
  0.938 -0.000  0.000
 -0.000  0.938 -0.000
  0.000 -0.000  0.938
atom    3   Tr[ns(na)] =   5.62869
    eigenvalues:
  0.938  0.938  0.938
    eigenvectors:
  0.571  0.100  0.329
  0.405  0.022  0.574
  0.024  0.879  0.097
    occupations:
  0.938 -0.000  0.000
 -0.000  0.938 -0.000
  0.000 -0.000  0.938
N of occupied +U levels =   11.257389
 --- exit write_ns ---

     negative rho (up, down):  1.146E-02 0.000E+00
 --- enter write_ns ---
 LDA+U parameters:
U( 1)     =  4.00000000
alpha( 1) =  0.00000000
atom    2   Tr[ns(na)] =   5.62869
    eigenvalues:
  0.938  0.938  0.938
    eigenvectors:
  0.473  0.166  0.360
  0.482  0.017  0.502
  0.045  0.817  0.138
    occupations:
  0.938 -0.000  0.000
 -0.000  0.938 -0.000
  0.000 -0.000  0.938
atom    3   Tr[ns(na)] =   5.62869
    eigenvalues:
  0.938  0.938  0.938
    eigenvectors:
  0.571  0.100  0.329
  0.405  0.022  0.574
  0.024  0.879  0.097
    occupations:
  0.938 -0.000  0.000
 -0.000  0.938 -0.000
  0.000 -0.000  0.938
N of occupied +U levels =   11.257389
 --- exit write_ns ---

[...]

     negative rho (up, down):  1.146E-02 0.000E+00
 --- enter write_ns ---
 LDA+U parameters:
U( 1)     =  4.00000000
alpha( 1) =  0.00000000
atom    2   Tr[ns(na)] =   5.62869
    eigenvalues:
  0.938  0.938  0.938
    eigenvectors:
  0.473  0.166  0.360
  0.482  0.017  0.502
  0.045  0.817  0.138
    occupations:
  0.938 -0.000  0.000
 -0.000  0.938 -0.000
  0.000 -0.000  0.938
atom    3   Tr[ns(na)] =   5.62869
    eigenvalues:
  0.938  0.938  0.938
    eigenvectors:
  0.571  0.100  0.329
  0.405  0.022  0.574
  0.024  0.879  0.097
    occupations:
  0.938 -0.000  0.000
 -0.000  0.938 -0.000
  0.000 -0.000  0.938
N of occupied +U levels =   11.257389
 --- exit write_ns ---

     negative rho (up, down):  1.146E-02 0.000E+00

     total energy              =    -441.61283063 Ry
     Harris-Foulkes estimate   =    -459.47239092 Ry
     estimated scf accuracy    <      22.69711417 Ry

[...]

     iteration #  2     ecut=    20.00 Ry     beta=0.70
     Davidson diagonalization with overlap
     ethr =  1.00E-02,  avg # of iterations =  3.0
     ethr =  1.00E-02,  avg # of iterations =  3.0

[...]

     negative rho (up, down):  1.172E-03 0.000E+00
     ethr =  8.32E-03,  avg # of iterations =  2.0

[...]

     iteration #  9     ecut=    20.00 Ry     beta=0.70
     Davidson diagonalization with overlap

[...]

     total energy              =    -447.09792494 Ry
     Harris-Foulkes estimate   =    -447.09792495 Ry
     estimated scf accuracy    <       0.00000002 Ry

     iteration #  9     ecut=    20.00 Ry     beta=0.70
     Davidson diagonalization with overlap
     ethr =  5.11E-11,  avg # of iterations =  2.0
     ethr =  5.11E-11,  avg # of iterations =  2.0
     ethr =  5.11E-11,  avg # of iterations =  2.0

[...]

     End of self-consistent calculation
 --- enter write_ns ---
 LDA+U parameters:
U( 1)     =  4.00000000
alpha( 1) =  0.00000000
atom    2   Tr[ns(na)] =   5.49009
    eigenvalues:
  0.915  0.915  0.915
    eigenvectors:
  0.442  0.186  0.371
  0.456  0.000  0.544
  0.101  0.814  0.085
    occupations:
  0.915 -0.000  0.000
 -0.000  0.915 -0.000
  0.000 -0.000  0.915
atom    3   Tr[ns(na)] =   5.49009
    eigenvalues:
  0.915  0.915  0.915
    eigenvectors:
  0.371  0.257  0.372
  0.583  0.028  0.389
  0.046  0.715  0.239
    occupations:
  0.915 -0.000  0.000
 -0.000  0.915 -0.000
  0.000 -0.000  0.915
N of occupied +U levels =   10.980177
 --- exit write_ns ---

          k =-0.1667 0.1667 0.1667 (   396 PWs)   bands (ev):

   -59.0998 -58.7849 -58.7849 -55.9035 -55.9035 -38.6850 -15.1955 -15.1793
   -15.1793  -3.1709  -1.5471  10.1582  10.1582  10.4102  12.1009  12.8229
    12.8229

          k = 0.5000-0.5000 0.8333 (   404 PWs)   bands (ev):

[...]

     highest occupied level (ev):    13.1630

!    total energy              =    -447.09792495 Ry
     Harris-Foulkes estimate   =    -447.09792495 Ry
     estimated scf accuracy    <          3.2E-10 Ry

     The total energy is the sum of the following terms:

     one-electron contribution =    -185.96176374 Ry
     hartree contribution      =     101.28619825 Ry
     xc contribution           =     -64.17549408 Ry
     ewald contribution        =    -298.38403638 Ry
     Hubbard energy            =       0.13717100 Ry

     convergence has been achieved in   9 iterations

[...]

     End of self-consistent calculation
 --- enter write_ns ---
 LDA+U parameters:
U( 1)     =  4.00000000
alpha( 1) =  0.00000000
atom    2   Tr[ns(na)] =   5.49009
    eigenvalues:
  0.915  0.915  0.915
    eigenvectors:
  0.442  0.186  0.371
  0.456  0.000  0.544
  0.101  0.814  0.085
    occupations:
  0.915 -0.000  0.000
 -0.000  0.915 -0.000
  0.000 -0.000  0.915
atom    3   Tr[ns(na)] =   5.49009
    eigenvalues:
  0.915  0.915  0.915
    eigenvectors:
  0.371  0.257  0.372
  0.583  0.028  0.389
  0.046  0.715  0.239
    occupations:
  0.915 -0.000  0.000
 -0.000  0.915 -0.000
  0.000 -0.000  0.915
N of occupied +U levels =   10.980177
 --- exit write_ns ---

[...]

          k =-0.5000-0.8333-0.1667 (   400 PWs)   bands (ev):

[...]

          k = 0.5000-0.5000-0.5000 (   410 PWs)   bands (ev):

   -62.7239 -62.7239 -58.9640 -58.9640 -58.1161 -38.7709 -15.6158 -15.3301
   -15.3301  -2.4842  -1.8934  10.6099  10.7758  10.8303  10.8303  11.7316
    11.7316

     highest occupied level (ev):    13.1630

!    total energy              =    -447.09792495 Ry
     Harris-Foulkes estimate   =    -447.09792495 Ry
     estimated scf accuracy    <          3.2E-10 Ry

     The total energy is the sum of the following terms:

     one-electron contribution =    -185.96176374 Ry
     hartree contribution      =     101.28619825 Ry
     xc contribution           =     -64.17549408 Ry
     ewald contribution        =    -298.38403638 Ry
     Hubbard energy            =       0.13717100 Ry

     convergence has been achieved in   9 iterations

[...]

     Forces acting on atoms (cartesian axes, Ry/au):

     atom    1 type  2   force =     0.00000000    0.00000000    0.00000000
     atom    2 type  1   force =     0.00000000    0.00000000    0.00000000
     atom    3 type  1   force =     0.00000000    0.00000000   -0.00000000

     Total force =     0.000000     Total SCF correction =     0.000000

     Computing stress (Cartesian axis) and pressure

[...]

     negative rho (up, down):  1.990E-03 0.000E+00

     Forces acting on atoms (cartesian axes, Ry/au):

     atom    1 type  2   force =     0.00000000    0.00000000    0.00000000
     atom    2 type  1   force =     0.00000000    0.00000000    0.00000000
     atom    3 type  1   force =     0.00000000    0.00000000   -0.00000000

     Total force =     0.000000     Total SCF correction =     0.000000

     Computing stress (Cartesian axis) and pressure

     negative rho (up, down):  1.990E-03 0.000E+00
          total   stress  (Ry/bohr**3)                   (kbar)     P=********
  -0.20974976   0.00000000   0.00000000     -30855.25      0.00      0.00
   0.00000000  -0.20974976  -0.00000000          0.00 -30855.25     -0.00
   0.00000000  -0.00000000  -0.20974976          0.00     -0.00 -30855.25

     Writing output data file cerium.save

     General routines

     Hubbard U routines

   This run was terminated on:  21:50: 9  14May2018

   JOB DONE.
          total   stress  (Ry/bohr**3)                   (kbar)     P=********
  -0.20974976   0.00000000   0.00000000     -30855.25      0.00      0.00
   0.00000000  -0.20974976  -0.00000000          0.00 -30855.25     -0.00
   0.00000000  -0.00000000  -0.20974976          0.00     -0.00 -30855.25

[...]

   This run was terminated on:  21:50:21  14May2018

[...]

   JOB DONE.
          total   stress  (Ry/bohr**3)                   (kbar)     P=********
  -0.20974976   0.00000000   0.00000000     -30855.25      0.00      0.00
   0.00000000  -0.20974976  -0.00000000          0.00 -30855.25     -0.00
   0.00000000  -0.00000000  -0.20974976          0.00     -0.00 -30855.25

     Writing output data file cerium.save

     General routines

     Hubbard U routines

   This run was terminated on:  21:50:23  14May2018

   JOB DONE.